##TITLE= Ethanol in DMSO-d6, 21.7 MHz, LW 10.85 Hz = 0.500 ppm
##JCAMP-DX= 5.01
##DATA TYPE= NMR FID
##DATA CLASS= NTUPLES
##ORIGIN= DIY-NMR Model 3 (simulated)
##OWNER= NMR3 project
##LONGDATE= 2026-09-04
##SPECTROMETER/DATA SYSTEM= DIY-NMR Model 3 / synthetic
##.OBSERVE FREQUENCY= 21.70000000
##.OBSERVE NUCLEUS= ^1H
##.ACQUISITION MODE= SIMULTANEOUS
##.AVERAGES= 2000
##.DIGITISER RES= 20
##.ZERO FILL= 0
##.SOLVENT NAME= DMSO-D6
##SAMPLE DESCRIPTION= synthetic, common time-domain noise, LW 10.85 Hz
##$BF1= 21.70000000
##$SFO1= 21.70000000
##$SF= 21.70000000
##$O1= 0.0000
##$SW_h= 500.0000
##$SW= 23.041475
##$TD= 4096
##$NUC1= <1H>
##$AQ_mod= 3
##$DIGMOD= 0
##$DSPFVS= 0
##$DECIM= 1
##$GRPDLY= 0
##$NS= 2000
##$TE= 318.0
##$PULPROG= <zg>
##$BYTORDA= 0
##NTUPLES= NMR FID
##VAR_NAME= TIME, SPECTRUM/REAL, SPECTRUM/IMAG, PAGE NUMBER
##SYMBOL= X, R, I, N
##VAR_TYPE= INDEPENDENT, DEPENDENT, DEPENDENT, PAGE
##VAR_FORM= AFFN, AFFN, AFFN, AFFN
##VAR_DIM= 2048, 2048, 2048, 2
##UNITS= SECONDS, ARBITRARY UNITS, ARBITRARY UNITS, 
##FIRST= 0, 6.0240378, 0.016953519, 1
##LAST= 4.09400000, 0.017497967, -0.019441181, 2
##MIN= 0, -1.4600393, -0.88871638, 1
##MAX= 4.09400000, 6.0240378, 3.5732724, 2
##FACTOR= 1, 2.244128948e-08, 2.244128948e-08, 1
##PAGE= N=1
##DATA TABLE= (X++(R..R)), XYDATA
0.000000 268435456 180851166 42605840 -25132893 -310916 42079530 37423049 -10405846
0.016000 -51288669 -64942918 -65060401 -62238496 -51794404 -26486819 -1512008 4209630
0.032000 -8664857 -13687256 -175600 18357918 23980153 15656856 3943563 2017744
0.048000 4476441 7838846 4878348 -925269 -1960232 730104 1396323 -2019912
0.064000 -2085278 -751554 618320 1606984 -88557 595791 -1590072 -158404
0.080000 -1063082 893157 -1028643 -536550 3159898 2758895 956878 -96861
0.096000 398225 -29161 -1965787 -823846 -2192540 -745895 -167460 -2358026
0.112000 -2466192 -1704360 75005 -934632 1540466 -30381 194090 -468984
0.128000 640496 1884213 259885 2521181 -935133 1738325 371687 -1552658
0.144000 -627739 -1818357 -973999 -285434 -1404760 -832538 -1799854 45857
0.160000 155571 665095 -171687 354947 -242523 -1035987 -436373 663231
0.176000 812604 1278061 -946421 -514652 325749 2707745 -1079059 509201
0.192000 580517 1614555 737218 -1362062 116507 433582 -756448 908480
0.208000 1413047 1177831 -262948 -434142 -2303 151155 -1897471 -183399
0.224000 1018281 168273 -261815 -320389 -510290 1164807 907554 -860447
0.240000 960498 -507337 -1803311 -423652 390482 455525 -117772 -706680
0.256000 1547868 -333799 -696955 -239618 723727 -1319735 314071 -1165642
0.272000 -390168 70362 -809951 -329840 281834 1584202 72459 -160871
0.288000 -443788 1466936 -685715 -1549178 -103503 -394055 8705 -930557
0.304000 698277 -1318113 1296267 -457441 1527185 787201 -584348 -1621102
0.320000 806315 -541702 -869261 -306970 1034214 -367311 941913 -857176
0.336000 792913 -1788546 -399277 613893 -48371 482781 296131 848516
0.352000 96434 -1412127 -145839 -50688 774401 298483 210122 -1064169
0.368000 -1355081 394259 260431 744244 678337 405300 -1964512 -1558257
0.384000 -611319 -534295 -460692 -705503 -354173 354011 -404720 -860767
0.400000 -235597 -683143 540983 -946901 1607046 -1775363 668748 -1447526
0.416000 216115 -365979 -25624 188951 -759220 -42990 193291 -70668
0.432000 273548 -375098 537660 -1677142 -835996 985807 980731 -58149
0.448000 636611 518178 -175868 -373924 -474862 529763 2506358 -1329544
0.464000 -1436355 425060 -93837 744230 67341 -1291039 476633 -1362979
0.480000 414882 -344334 -90278 -804838 228879 279626 151823 -906276
0.496000 910156 -323878 -1329130 1022878 202755 530087 173448 -52113
0.512000 1177758 -1491219 17186 -1046932 116941 514529 851025 -589134
0.528000 -254847 -1381991 -739807 534470 -1002336 603394 -1504324 246637
0.544000 -70531 693349 -232805 -28838 -746244 1081259 623569 512142
0.560000 449554 494318 -777504 -477584 788102 457704 -149192 -546381
0.576000 -213689 -100085 -699585 1840224 187549 818509 -155507 297569
0.592000 1723819 2363926 102208 -73257 2044477 -1654978 760224 887552
0.608000 -125909 690232 158180 392602 869224 1040961 616176 884642
0.624000 1169733 707724 1406756 -334120 -823717 553133 1429760 608682
0.640000 -340044 -465345 61367 -744793 641817 971003 -307687 -71001
0.656000 2052280 -156063 -409663 1179948 564359 153929 822315 -947386
0.672000 144 245388 -652308 369601 986266 -1793757 -403736 177827
0.688000 -595434 585619 161695 334411 484141 -603300 -601728 949025
0.704000 -1255341 141233 204657 109602 480970 -857006 -687390 498876
0.720000 1163789 897207 -425117 318672 1732056 -1309944 -125596 -540819
0.736000 -13322 476410 -601106 -975691 1077627 -302561 -1777698 257680
0.752000 -1669083 58133 -880281 429609 1281147 410023 -606764 1890202
0.768000 -833600 -667874 808249 -211022 10578 -1837647 -850295 -158617
0.784000 918032 -276946 1561484 1299487 -1791867 -1004758 -1943604 -1330664
0.800000 493758 344713 -1151827 915660 -1037833 350338 271176 -127363
0.816000 -559174 430800 2128198 -537283 -539652 981825 -1277067 -432703
0.832000 157005 -991541 341552 -921730 1363498 -1093960 -688556 -769973
0.848000 -615240 -230794 -1080486 -968288 907329 1483034 -839643 1463824
0.864000 172294 184903 31273 920877 1420826 -1850576 -496412 309875
0.880000 1316392 -152649 1334624 326476 -412389 135060 -383430 1064720
0.896000 1240704 -492364 282701 -236531 -593125 -440923 -1575098 782753
0.912000 -77213 -915859 448672 551276 -1158977 -553979 -222106 773278
0.928000 -693945 975403 314565 177713 305262 1023946 1028886 47586
0.944000 -1375387 -398719 477450 600192 -223025 2135044 -817622 -139937
0.960000 -1101514 640204 1022390 -568305 -1553950 247823 571753 125919
0.976000 -204880 29584 1542327 5550 420251 1694104 -884822 -2075355
0.992000 343730 -1490073 339203 -764053 -1059056 362697 1172709 -746283
1.008000 24935 2775718 1080770 269111 654512 -769416 1164037 -1160849
1.024000 838538 694152 659362 -890459 -720549 1655140 -586421 115768
1.040000 224294 -428261 -75241 698572 -515311 -305296 355842 1359216
1.056000 -55983 1621092 690843 867785 242717 443568 -408511 821196
1.072000 -519997 -1884041 1827897 772902 -477642 -76322 335435 -2221978
1.088000 -787581 -1058767 -676719 -279035 -118696 -609584 -1503898 -866242
1.104000 -2971780 987723 -218139 -1125442 -1181281 694557 456854 675057
1.120000 1127398 -314447 -361171 -84291 489451 -177321 -937770 294146
1.136000 550896 -721953 1027942 106488 247911 -564792 -1228680 -546674
1.152000 1696904 -700857 1386270 1820806 859053 1178921 914381 -169438
1.168000 -798834 -129257 -305015 -320647 417420 -995723 354882 1205702
1.184000 -495586 -982964 927911 772647 1054344 -592047 661118 533604
1.200000 -243335 1293705 -971061 1597254 564282 312526 -1462472 -764715
1.216000 635014 -358513 -1178113 -257633 562113 485212 -15082 -697432
1.232000 -857541 -1636992 -329287 -721180 -713969 -806237 -277360 -773025
1.248000 -89485 1299043 384379 595865 199414 594581 -1102586 -1065538
1.264000 -845863 -813530 641482 -898703 -629499 -587774 -186872 297021
1.280000 345591 -604839 821198 843449 798001 386998 -519246 -560039
1.296000 508272 -96211 437753 365920 1113652 -16627 1341635 1108397
1.312000 675424 -2053699 1346700 117322 369809 623489 630988 -1117376
1.328000 174321 -188575 214809 343807 2200075 -388568 -538769 1824842
1.344000 -1544990 394172 966823 415137 -1934553 -517770 225021 95758
1.360000 -728733 309982 -766370 -238180 48018 -19457 -343958 -1404358
1.376000 1269136 246402 209454 69508 -1350049 -1136901 393414 -1221028
1.392000 -225591 -1527099 -515421 -227159 189236 341774 1734345 -1307157
1.408000 -805567 629551 957212 -993061 -627260 70584 -328922 107032
1.424000 30642 31025 -198861 -544016 -1226423 -930806 -329292 -610974
1.440000 -954374 47570 -954001 440140 -366951 2229162 -447730 310094
1.456000 1279076 652841 484492 -140517 1236904 -1001049 -1045836 921768
1.472000 795479 -44736 1553728 -254048 3030658 -635962 -242039 60399
1.488000 5274 809127 836646 -170347 -279729 -560142 877415 1483368
1.504000 1101527 -1171093 -571738 -437885 -240912 666038 -626474 239541
1.520000 2391288 287567 -925609 376212 -1437505 -821023 -2383704 -195866
1.536000 136464 -1121597 230848 -90046 -193362 1413811 -829379 -1169723
1.552000 358804 -285489 1283202 -418516 620316 -652913 -202965 -570300
1.568000 -1089365 858944 -1121007 484845 -443931 962640 133959 264845
1.584000 228101 -42046 839181 617196 -367906 461135 612157 -467959
1.600000 1158124 -1283515 536136 -966598 629819 -502037 -1537684 280795
1.616000 -416462 -219202 -998033 1159939 -1149676 2028363 -375239 -94561
1.632000 -647023 -561106 427103 123750 -304031 -791584 872310 414466
1.648000 1743391 -1007570 741429 -171053 102155 195098 627548 317133
1.664000 -1122813 -42482 1169988 -48270 298388 662292 -1461969 -935673
1.680000 -1028664 -256950 -616276 -671331 837468 -896352 -196039 660101
1.696000 745259 -433873 -36593 151504 -439588 813776 32790 -104223
1.712000 -191218 -71964 545598 -926495 366571 816934 -275102 1072917
1.728000 805602 -1983941 -100486 -71569 -97626 326935 1444832 -474970
1.744000 208207 -1058175 -121943 -1348950 1185821 -215541 266817 645381
1.760000 405844 518780 1467240 691334 71565 -477893 1491334 -935302
1.776000 10778 386908 90352 -651368 -84891 -241516 -471719 -89622
1.792000 -439443 421955 -89794 614454 1667798 -283510 -440413 491715
1.808000 2268079 913670 1521003 897195 -885681 192943 -42927 -235376
1.824000 -66375 -1164856 106573 -163153 1322533 92443 -200279 -1144968
1.840000 1323569 -131624 -1443099 -414442 -4011 -660128 -2365904 104468
1.856000 320534 945292 -703628 783837 -909160 -363713 -346750 79263
1.872000 1307640 373738 -122024 819639 263745 -634329 1404399 -1483722
1.888000 294597 -98245 -1578295 -1094781 183425 238695 441143 -1354485
1.904000 663864 1221200 -453802 144141 1230679 329151 84911 347755
1.920000 318487 -611258 -696496 276011 838517 -194025 1682587 -306588
1.936000 -431767 -197046 -1466021 -477530 -975693 -1098923 -2254865 -213086
1.952000 262113 -44624 140583 -2033699 -686524 551649 -804025 597207
1.968000 504425 -1235333 -40684 1086236 165421 -965576 -10491 -1378748
1.984000 1673525 937990 240849 499968 40338 -977250 -727816 744054
2.000000 -1015138 -754825 1639530 -1121257 128704 -257497 -90280 1051601
2.016000 -140745 -392398 -680070 981087 1117697 74452 567360 2102489
2.032000 714289 637194 715491 662224 762026 -125705 26808 467790
2.048000 208360 970110 -45263 -703645 -300409 -121852 841472 261469
2.064000 674576 486259 -266626 -7061 -870532 381396 718886 178940
2.080000 -12615 318080 -476321 1913350 -1327569 1470245 528116 432614
2.096000 1216049 -708443 22312 628836 1150959 430495 232823 -339016
2.112000 644583 -462208 -1220811 -375674 -228319 375736 -2488773 1450757
2.128000 165194 -849868 -909215 108863 393147 1245704 175379 221884
2.144000 -2608323 10441 -1475744 -646317 -1442091 2041677 173481 -293008
2.160000 -345377 261304 660732 1318540 -532577 -1060493 -152347 -294048
2.176000 617655 -70875 -1448452 271722 1518546 613762 1600422 1519380
2.192000 378675 1745993 600024 -1051728 1365466 811663 413481 44965
2.208000 217026 2249975 -64369 1083405 -271927 783089 -9769 737871
2.224000 104515 1421687 10503 697689 468558 -770627 1578879 -131104
2.240000 315848 -1835652 -865667 -967361 1510054 -2168795 -80501 662365
2.256000 -108134 -260743 -346325 33328 -123649 1710142 664721 -579756
2.272000 104985 767429 -201462 -480440 59110 1242220 -156763 1410390
2.288000 365455 1017907 1434291 -787979 -45543 1926564 519517 350508
2.304000 -184883 2363861 583680 -374197 -5410 -1219434 835913 317008
2.320000 -402007 1106191 1156787 -1255761 -875404 -916286 595111 -1792777
2.336000 1678028 -567039 1364574 -253316 503001 -838821 -852252 -416926
2.352000 -524978 73458 779407 549737 1564406 1284852 102498 -103340
2.368000 -1323704 722191 -901459 -721135 -667500 -1286288 -310665 375974
2.384000 887673 66235 -910094 -1085715 -126524 721508 614702 690213
2.400000 400929 111530 -238879 -2675023 -621648 388177 155091 836216
2.416000 -230101 -529071 -827437 27954 -503095 -444901 916411 -406705
2.432000 -286233 552290 -860225 226577 180442 677244 317481 18831
2.448000 479811 158000 -188804 -737097 239138 -181323 -667959 -101270
2.464000 -309565 -129008 -713729 243742 -955864 780176 -332707 157505
2.480000 -1018620 438837 1240821 962590 -1061987 518286 110759 391814
2.496000 916992 783480 -99177 238060 -14247 777889 -1000064 -1569397
2.512000 108319 -466098 -1182040 892022 -1481820 577765 196023 -726179
2.528000 164637 -182545 -723968 632777 -336787 111729 186344 1131646
2.544000 -1034030 -422771 -476001 339863 -809325 -959648 -222410 1065494
2.560000 129372 205320 -1132132 820879 897153 448751 1102626 1456132
2.576000 205570 201032 -407877 373339 -1026263 -255147 1509305 1009144
2.592000 -970392 1175952 -1591318 324366 -419665 1231167 -898403 134567
2.608000 682946 2215172 -675561 -642539 -366450 -6110 -317945 539891
2.624000 540463 935225 -1314215 475314 -642324 -92631 911578 -1864570
2.640000 -1094797 533883 -593915 -239357 -1332890 -310702 -975890 -1526271
2.656000 232564 1216618 347633 -781467 -1194992 -396460 1645653 501665
2.672000 896493 356388 934585 -1599252 -268250 501966 -179223 -607703
2.688000 -611990 608511 638169 -533354 -104428 711324 -708411 1224051
2.704000 -435629 -282591 -783153 250878 -1042951 319215 1011777 -1129172
2.720000 -258066 335120 560097 808955 620046 1636827 1180979 -1001848
2.736000 -1257509 616733 -423942 906707 1407165 644366 -476281 -775117
2.752000 -1637923 846629 224591 -1181269 -27473 -431263 -1767994 81096
2.768000 876428 1642840 242814 -927921 21653 -298026 -59157 -652795
2.784000 375553 -24995 268858 -500721 696999 -960866 501686 1104560
2.800000 452762 685514 921712 -864361 430209 1108174 -331829 -657792
2.816000 -361199 748707 85920 1115798 -36970 -561730 1298954 468957
2.832000 -609768 714151 -486270 -449202 316966 -223828 -255779 143346
2.848000 230950 -1571230 100353 184260 97741 -1749402 -1538511 1045569
2.864000 852041 -1022807 760463 -770511 952572 -1417120 -1830592 430930
2.880000 8291 -618641 96679 324875 65625 121295 -694801 231873
2.896000 73442 1378019 -1071145 1096238 244058 1068020 -861023 2777092
2.912000 -601279 1033825 -2584127 732477 581206 1901785 327771 1316489
2.928000 221569 -1484930 373285 -112864 -863277 -347576 -297456 -970778
2.944000 -1080770 1156976 -540646 -312513 -121989 150369 223063 498879
2.960000 8193 -655935 787209 -1944861 10173 141086 -501675 -688168
2.976000 383711 1597475 470792 -316904 479498 -1533816 859825 -178120
2.992000 -1368374 -2005478 89641 -313128 316975 536578 -398644 1245225
3.008000 -1082905 576907 167306 -686972 1321504 9064 -537796 431648
3.024000 1541447 -864521 -931139 -29545 -501236 -44983 -152361 403741
3.040000 64065 1018300 -309833 974885 247025 -757875 -1812155 -553122
3.056000 -372215 -633719 127644 -542255 -939511 990464 1141497 1944946
3.072000 -208844 11926 687764 998005 909054 -1342669 523102 -1316190
3.088000 1799258 865637 -81466 200288 -494283 -807126 -958689 -743442
3.104000 -1298071 -1523030 294526 -852773 910493 -2969742 842182 525019
3.120000 694677 -934018 -301224 431276 -3474 396537 2033695 -1977668
3.136000 63552 -1517636 719659 1077811 652570 -1459175 294047 2364668
3.152000 695605 -428875 -410970 683852 1767972 -716317 440148 650320
3.168000 430375 1196540 406495 1966367 -2361563 -796397 1047915 252000
3.184000 -531000 1577167 -1101328 427556 -1374431 -480535 553230 1870394
3.200000 -902499 -897343 -105705 -856138 -706660 -876467 1545367 -160351
3.216000 2137838 587269 81893 144762 -1373151 1190839 -673968 -1902890
3.232000 803291 -759825 -817692 79700 701438 -1085304 -1038202 -54981
3.248000 540138 340086 -849808 1526147 -606542 425125 1449898 611257
3.264000 777227 -503982 -726256 -666609 -773536 -302321 -576505 -1690995
3.280000 634267 210903 442434 -894248 1290162 295503 266160 -196058
3.296000 -152159 815785 278486 -575309 526132 -1229401 778231 -888534
3.312000 -194068 539284 -243176 473597 1122358 835657 -706163 325066
3.328000 -1191067 444700 217457 1576363 1467345 388932 490968 -241631
3.344000 -393140 794006 -964351 -673505 34871 172088 1319743 236636
3.360000 169327 -809178 -973015 185831 404874 -819019 581611 -242155
3.376000 47339 824112 -1252531 991157 120266 1612607 1411214 2408662
3.392000 771841 -499832 911812 285176 1856268 502935 -624395 -360765
3.408000 -1459918 874490 -1008870 196526 -692444 -1502020 1075342 -897323
3.424000 -1352582 490116 1373730 282425 -1072886 421796 -1616594 876264
3.440000 252768 -1354320 1890049 -371166 -80488 1147151 132217 -576078
3.456000 1301012 -260793 646642 344101 -1574887 -598248 -34405 -144227
3.472000 -1062988 -2189015 248461 569141 942839 -923893 -930925 -998151
3.488000 -836738 -1162672 386023 -1070007 -590506 -101353 -931955 265738
3.504000 305208 -601599 992388 -1290271 -923860 -364694 68479 -1245214
3.520000 213005 727081 770165 363540 -388357 517967 -546108 254000
3.536000 17081 -1700363 -926971 -947469 290761 -15273 588399 -370392
3.552000 73585 733678 -47995 -963343 -864891 139986 -232540 -1516610
3.568000 -5099 993210 618342 517830 1958678 -182002 -133274 -292001
3.584000 210395 360961 1025097 442982 1784480 -428437 281958 1080921
3.600000 -653815 162615 1458185 -697917 1114179 956144 3620 -682303
3.616000 -979873 419048 -292910 -1060030 -1162429 435364 255989 339200
3.632000 305169 -180713 -1299436 -202490 -432686 1835781 14636 -766121
3.648000 376872 431446 -257442 -485287 425840 -1372046 -1830376 -187727
3.664000 261010 1501016 -699762 -681538 371186 1675854 1068535 -2282917
3.680000 -784357 409039 -1186605 -556361 471937 1316590 99578 -1034869
3.696000 310394 -644016 -2212028 -251747 161526 -392986 -440013 -448230
3.712000 1468406 673937 188857 218884 582363 902743 -174878 -957318
3.728000 -1225635 549431 654147 -304237 1819233 -764120 -724500 384163
3.744000 996849 -1479519 127322 -529515 1727115 -839747 -84708 306879
3.760000 -243219 616247 254160 46117 142670 222196 -2047023 -477561
3.776000 66550 -795348 1122161 718916 -14972 -78868 1659340 378143
3.792000 -1792359 75466 1611209 783196 -420078 198381 126934 -1195028
3.808000 -128330 30343 653060 1580221 -139941 -433658 1419848 -1269038
3.824000 997051 2448661 1003853 -1196081 220594 -691361 990718 -72607
3.840000 1432608 1089298 546354 110804 862482 -979032 -74629 182819
3.856000 334482 -1609446 -313061 1298590 -1216067 258118 1071930 -484836
3.872000 869972 398384 320948 2206787 633363 276011 -1189826 399934
3.888000 1844052 -481656 221138 732994 708032 232960 -336878 -189642
3.904000 -2280003 719144 116671 731243 170530 -401110 463664 -1398652
3.920000 997215 652882 504733 41584 -927436 15971 -218495 -248525
3.936000 1086505 1523653 768779 -1389467 238556 -427968 926839 -1486358
3.952000 -1057219 -187043 -433006 1187259 -1406893 -255679 1195691 -1073896
3.968000 83362 -1103130 -566118 -802142 1108525 -2023825 80844 -292658
3.984000 349986 1690512 -938133 204409 787421 -431653 -22771 -846874
4.000000 353425 -467659 -1380976 -12792 304813 -383934 388328 -894831
4.016000 270031 412952 922846 -1309334 -324433 -1129931 393559 238556
4.032000 746412 462244 158774 313185 1447141 234924 469170 -2047701
4.048000 -324496 1188064 -1956328 -33811 814299 874453 1202188 -581938
4.064000 -51079 2421008 1592053 175235 72901 -730523 -478859 7081
4.080000 2009994 -20372 265927 558271 385159 -689223 557616 779722
##PAGE= N=2
##DATA TABLE= (X++(I..I)), XYDATA
0.000000 755461 142456392 159227587 82973512 21603242 34534473 76486050 95584093
0.016000 72608827 39931808 16593241 -4497907 -28658291 -39601841 -31579839 -11560107
0.032000 -7547969 -19319819 -30237771 -24314743 -4637713 6853389 7370879 -930200
0.048000 -1118404 2276166 6058151 3819657 1853379 -921767 1599401 2442309
0.064000 1586352 -1642483 220152 492582 -115558 1213616 -1029560 -784421
0.080000 -201993 -34466 -534571 -345436 1788082 964211 535600 1747647
0.096000 1286324 195932 2593896 1314996 -575058 1691986 -2097952 479648
0.112000 -1054935 -1393794 -2678131 -1979457 -1121729 -442838 -2963661 -1524730
0.128000 32288 -872349 -525733 2020479 1690520 1765980 1344233 1555218
0.144000 1028698 129430 2185700 2043253 84296 -667564 -1607533 -108371
0.160000 -1661178 -215809 637789 -1257973 -353236 -598649 749191 -2031916
0.176000 226268 -322313 245097 2064851 921303 -56392 339190 -1279174
0.192000 1136251 655712 -689270 914021 433956 690935 -639748 1352839
0.208000 -944858 -208753 30329 -2106767 544529 398225 345339 62458
0.224000 1533194 47558 879827 -339115 159232 153945 206015 348715
0.240000 794341 -1322835 1155243 -1231328 532112 2292076 389058 -152632
0.256000 -321422 759771 1579468 1173593 -732361 238514 -832857 299896
0.272000 839097 -1433927 -684281 -844207 212911 878430 -1882466 -772122
0.288000 -1009274 323742 169986 914166 244906 361757 917939 -295761
0.304000 -102488 2083713 -272637 -370075 1616702 -681126 -1214825 1646234
0.320000 509319 1046836 -177856 1114606 496470 1467671 -105630 -1867581
0.336000 946419 -592515 -807528 2071662 623185 -386685 -1300977 1063839
0.352000 -618710 101705 493548 -70494 1265632 1045474 22565 -897040
0.368000 -3247867 -538970 956679 992231 -72003 -559662 824424 -1328351
0.384000 956549 187556 -412204 859109 -662631 -119935 -900078 -1611939
0.400000 -211286 360267 -308260 293377 -229901 1189752 362687 435280
0.416000 -30430 795246 -894605 296982 -410343 57641 -727273 -465640
0.432000 319371 -1895952 635476 -1715256 -1719842 -403764 918156 919497
0.448000 868135 324915 620345 609136 213598 411390 -67818 -441315
0.464000 84280 -1048494 34774 -151351 1015475 -14342 -558582 1442334
0.480000 711480 -501815 -319977 926706 -208349 552680 -491697 -35286
0.496000 841251 -411437 -144662 -644587 31083 745404 -529372 436120
0.512000 -1519757 767783 -1424298 -1088116 141863 -673545 50761 1363193
0.528000 359464 1152609 1280320 -604547 -1429002 -791943 1457576 -180605
0.544000 -724418 1392011 571408 -555510 -78960 221334 -369121 -138132
0.560000 -776808 1455829 -296587 96009 -615108 789451 -701120 -116529
0.576000 -125341 -314961 2267253 -1874471 634336 252148 361747 -108712
0.592000 -762280 1517404 -577886 -359249 -20740 -861017 -685221 -635561
0.608000 513351 405331 -1034808 384156 389066 -130426 -489298 1072160
0.624000 181368 290656 -127225 1207080 1523042 1649849 -561801 266934
0.640000 559537 144253 -557540 271166 -228955 310095 293419 -979835
0.656000 -42932 199013 -1179411 469362 1629532 515639 47771 874588
0.672000 -78821 121369 -204562 655198 -2430548 -979494 -300178 -89570
0.688000 -465533 579937 2372174 52248 -996567 -266367 -379013 -1244357
0.704000 -570740 -354433 931936 1504119 77140 408907 -399947 -896194
0.720000 154632 206409 -2148207 235374 -404748 578391 -315230 -356863
0.736000 692365 1311287 -898617 -288545 513230 -509947 -1814298 -1081921
0.752000 269658 -429936 702110 95645 54231 -454644 705312 16418
0.768000 -1847589 -659849 -689010 2195524 -1785632 -1298501 258531 -1379769
0.784000 -1169693 -777077 34502 -384302 306632 -392968 408212 -1353674
0.800000 852814 976867 833076 -317074 120697 921505 -1288934 -391721
0.816000 -231493 -582496 1714822 -284374 559993 -163573 -274146 1314309
0.832000 90789 -1231895 858955 -457747 1094999 544619 318757 399208
0.848000 -2181699 -402201 1127783 305340 522970 449313 -62425 439284
0.864000 251677 759759 -36030 138688 -177772 1334129 195104 -387169
0.880000 -82082 682127 496503 597254 -217924 -101987 1608276 -1912479
0.896000 43807 -16333 639842 -1449832 -1171758 -1032895 222837 -682105
0.912000 -217830 736358 173732 369390 962990 -343638 197013 -506454
0.928000 -224838 2193944 -84226 -555240 373933 412338 -696593 -197393
0.944000 -213598 83599 1110891 1798513 -839603 569033 -809786 -698172
0.960000 668197 469242 1309828 379424 1776 -440350 768481 810512
0.976000 -1869612 559284 -723390 531951 288530 1685369 319900 186481
0.992000 613001 335973 263871 262794 1138448 590792 -921558 -881065
1.008000 -1000568 -1250142 -667945 -906682 -1121980 1661111 1524077 -587563
1.024000 -603716 121044 -890145 870592 -1372064 -757510 -763235 -86955
1.040000 292149 -1097311 421235 351727 548612 514221 -711706 -385389
1.056000 94235 504021 -846064 102433 1209486 -888266 -702104 -235850
1.072000 -887831 16336 -383364 172956 -1113361 1617608 356262 -329814
1.088000 -521690 -316054 1023045 281819 -454518 525398 -49049 -446622
1.104000 60180 230407 -206676 711994 564978 -969809 -68441 -587625
1.120000 503477 220603 -321708 686870 -954302 -915787 944708 -1306679
1.136000 -2135006 911997 -1044018 264446 575127 1263084 1177862 -379978
1.152000 834861 1281780 795950 -681861 585229 292710 1191207 -2591967
1.168000 -1278952 886402 76689 1203289 948890 -39674 -550046 -1587986
1.184000 82666 794270 -551688 1161221 1343300 1479520 1013386 1637383
1.200000 162437 569524 83245 76842 -1009440 -668628 -776874 -1235127
1.216000 1104043 1132572 -440904 -367248 -19900 -210302 -1508203 -420523
1.232000 175039 333138 299990 299435 937268 586395 630465 497312
1.248000 615827 269675 -1554698 214245 -663768 -1020837 12485 -1000021
1.264000 -472057 -93580 936292 -1504968 164733 -840759 1285978 1076507
1.280000 -435049 -425540 1094811 1861297 1120964 -408751 -351936 722640
1.296000 -557685 998056 -360145 -1355699 1174116 417235 -1869064 -1066308
1.312000 1104920 237984 -269807 1550942 -116470 413569 -239032 372349
1.328000 -444986 -1141783 913910 -354082 -895577 902726 -30385 446263
1.344000 179043 445589 1798421 830135 -80843 537154 616207 1944560
1.360000 575384 -804458 -1931510 -394949 -321674 -269574 -1201431 674437
1.376000 -425448 848022 -405555 1313648 2381254 805740 850045 -412842
1.392000 518456 602899 -739630 -36198 784765 216160 55225 238971
1.408000 1282555 859404 -1135843 195817 246772 -143025 -41434 -995559
1.424000 531183 -54040 -890020 38500 605390 1335790 -41148 -84686
1.440000 -969833 1091699 -1054718 -337408 1783411 -84429 -950489 172352
1.456000 -367012 -232867 -513789 953571 -832244 -120583 1453138 88629
1.472000 -1431411 -911390 -1273769 -440076 692637 143820 764824 1243220
1.488000 752580 1333779 537587 -336777 -836923 837827 -1124632 -39897
1.504000 125278 1123779 -1283454 336914 -245658 886923 1281239 66151
1.520000 1793610 -474892 -565780 -86304 -194895 -131614 -1897142 -712573
1.536000 -423035 112601 -438259 379746 1382758 311473 -888086 -240613
1.552000 665117 823918 -611859 -1759451 657638 -762104 -629459 -973931
1.568000 200735 -2287873 -1437412 1022086 -227124 879780 196277 -2395833
1.584000 850513 -482811 966968 -877482 -254161 -458056 -1156487 140926
1.600000 361739 1294686 199679 1392239 1323870 -676486 939866 -191122
1.616000 -1941501 -508055 -546130 738621 559366 420976 -14848 -516760
1.632000 980821 250826 -63392 409100 254488 -58665 -59125 480561
1.648000 -1174686 -438263 -1574280 -865072 297143 -148989 -466628 -28659
1.664000 -1077294 14905 849176 1439906 319634 -412823 200260 605928
1.680000 37868 -275683 -51455 258796 -841910 -1189007 428924 -498393
1.696000 -1168613 394536 -436049 1205968 -1809627 -1150813 -37667 300779
1.712000 843901 570002 -333818 479761 1311937 1937034 -314057 1522681
1.728000 107220 -1168549 1057346 11199 -464326 -495724 328175 207269
1.744000 -272967 -332536 -700093 1412156 -652615 55144 -1092633 -2445954
1.760000 -201186 -784456 -1029913 -366418 800844 309768 27743 812633
1.776000 -88170 -1471907 838824 -759093 -1521942 -129284 75109 -321236
1.792000 486271 1176373 34629 621817 -617197 -208653 -894334 2390207
1.808000 412585 -848409 245887 -450413 -363511 -895964 -2034736 392050
1.824000 -590200 -258584 -507936 -773162 1311703 1133501 -98004 10055
1.840000 -2368845 84308 -449592 -225210 -516293 -767306 -717204 -418244
1.856000 -622422 -928030 1358071 915132 -287950 -35142 -943758 -869125
1.872000 725277 -959210 -394268 -1838085 1031656 -456129 -575759 -116679
1.888000 2442228 -266098 -1042001 -234561 -38381 356626 -201121 -74897
1.904000 289319 1747714 508049 42944 630871 -1782844 -1045795 286575
1.920000 1765265 499838 -1314517 795730 323247 1810285 2299000 331482
1.936000 -853812 374693 -766047 288493 -189609 -218016 1001162 227329
1.952000 976681 -1954887 758988 1189665 1601085 -743481 -1046825 -1088035
1.968000 28170 84735 -1154231 -1757011 878828 353084 803431 130720
1.984000 116693 2137691 1439465 -537118 -13930 367570 -894335 -993826
2.000000 1005438 15301 -244874 818222 2018310 -30453 173610 -408435
2.016000 463070 -537221 667069 -1568551 934063 102543 -546312 1023729
2.032000 330731 74082 61956 -38237 1201160 -723340 968715 1016342
2.048000 147901 -156181 -416434 393943 -401404 -510324 -186280 -1256375
2.064000 682389 -877645 -574997 -622660 -870105 -139172 889640 -795625
2.080000 -991291 1712251 -302327 -1996162 763030 -274877 -1360155 216403
2.096000 676174 -644439 22133 181272 -1069264 389295 -27496 618052
2.112000 265612 -972704 421759 -90789 25616 -436205 -107461 215406
2.128000 189485 -215177 354125 -734760 465451 394214 -1477045 514596
2.144000 -37932 465202 -952997 279901 -59630 1695951 -205162 -222846
2.160000 -57985 600274 263164 -488574 1028041 6479 -74106 -1087519
2.176000 -361073 596100 -312551 1225003 1510571 160438 611592 632621
2.192000 -912594 -2044491 1065937 -672219 -53471 10568 717128 868799
2.208000 -736568 -1026996 -1579317 276112 1217410 1185881 -434912 351375
2.224000 926795 -106237 369187 7391 -573829 979120 530318 1187700
2.240000 818302 564254 -251416 -93296 -2113657 -212437 -360222 52451
2.256000 805404 499000 1472380 -1027248 1276694 1090553 957332 359259
2.272000 -1576132 -667738 -1652896 107290 -150323 279865 2076021 559196
2.288000 -32043 -15811 -272641 -26813 1309010 -414689 -557418 418550
2.304000 -1197594 -34252 -524797 -412777 1786615 -263160 -1575300 799086
2.320000 331257 -576401 574135 -1347879 938586 96611 506820 -566063
2.336000 -294734 1116992 1659076 346320 -2201957 965344 1568814 -477970
2.352000 1140560 -1002628 -877542 -1054960 478870 166400 1111296 -411415
2.368000 740180 -752699 308118 -837695 -367794 405902 288331 -854907
2.384000 440253 962960 -1012815 -332822 -672745 -67330 -639456 447765
2.400000 420802 247737 843958 -273515 -474747 -1458416 -1046148 -789178
2.416000 878533 1043976 -146834 759818 -1514755 -1348485 755596 -218456
2.432000 435912 -377275 1386848 920937 28665 -694221 1152749 -1896088
2.448000 -879087 243977 -1463938 145159 497844 699215 -730411 -1924403
2.464000 1553797 411248 -1042712 1500952 799974 -340254 -955155 -497101
2.480000 66222 -326486 68556 1798753 67592 1088580 204838 -52883
2.496000 -286551 313160 197270 -349674 95387 226006 634081 696994
2.512000 96626 -911639 1021847 62457 -1503009 483107 297689 -1123713
2.528000 -22714 115708 -596352 556556 60073 1606810 28365 78302
2.544000 -133154 -12237 1647393 -131168 313945 -1041075 -433122 -895651
2.560000 555854 -633039 -1160970 -1334444 224974 463840 566638 374083
2.576000 486151 -1298689 -211490 1074062 -1008257 -715851 340178 48025
2.592000 -234474 397567 741541 154740 530038 1343159 -943890 -62634
2.608000 -1437400 453966 904391 -156769 -743400 1323306 744529 -1679353
2.624000 -147886 68236 -362746 -843246 1747829 682727 1034721 -910326
2.640000 84076 207129 -1492758 943988 -584201 -346510 1296770 105307
2.656000 54985 344670 287476 -2185413 -811910 -283097 -401480 242608
2.672000 -577189 -651647 62981 1383460 -544058 -373948 -835692 179053
2.688000 -870350 1841966 -547900 -2112856 941522 -765687 -111412 321452
2.704000 -958421 1530811 450776 -170651 1262967 -13222 -595935 537014
2.720000 1006658 874125 257976 -692461 1026893 -906381 -765669 -486806
2.736000 -179497 -1258757 -136085 -131807 1581673 516526 1060239 169559
2.752000 1137925 -380553 -1244430 615710 -361705 -1128860 -1542930 647389
2.768000 302839 169550 -436293 360563 -847876 -276225 129018 37441
2.784000 -1229550 749349 -217996 764116 -440102 17093 -694349 -568592
2.800000 -1118188 387238 952780 -2614020 -901514 269340 930088 81426
2.816000 582883 772540 -118586 438487 1034717 175000 -382740 -664889
2.832000 323587 -477667 436550 1839792 -952884 520234 444835 -1897782
2.848000 -2911 483150 671724 996075 220597 -393293 -275909 1317355
2.864000 -101872 907457 582680 -704451 591410 821501 1232611 53839
2.880000 -1065634 401848 1444193 1448459 981451 -1364786 1089823 1289919
2.896000 174187 463477 -769630 -1447788 -290105 -221161 -1504531 816872
2.912000 -223817 -189591 1329431 632745 31666 -246044 732562 1285989
2.928000 -153147 -408194 446442 450705 317018 -877240 1089129 473365
2.944000 434451 -185680 -764802 23442 1372293 -847100 -336450 -1216761
2.960000 717547 1431773 1168395 -852778 -901697 -1169795 -341145 -1201402
2.976000 1039826 -1323331 -574610 -1005130 -719857 -66361 -525411 322064
2.992000 271968 -179986 -1554922 -851524 -418160 1430762 84799 -405990
3.008000 -127894 -472609 -2060688 357483 -291159 -929516 2632330 8067
3.024000 61033 67977 545355 -141140 -367192 -634317 1176036 686535
3.040000 -259239 797226 -713364 -990053 955201 -223514 -706021 708112
3.056000 657721 -19941 350808 -1653585 100415 360304 175333 -912643
3.072000 -1229349 540193 -730995 1398369 -1144779 -1156854 6013 173734
3.088000 -781754 -590587 357453 73370 -214793 567564 -626816 -1613979
3.104000 1588191 -792138 621210 -322045 504412 -346252 808780 876508
3.120000 -151917 -456146 482645 -517748 445649 -2078230 -307844 868565
3.136000 -775233 -53829 720882 54021 -1911426 -902624 -343175 1817473
3.152000 -470042 897856 713194 -1354593 -1676764 940702 213311 -1627184
3.168000 969531 -1342415 -1088672 -471427 261861 -527412 -1624973 -606800
3.184000 239876 -293769 -451562 350525 -953815 -438512 1349043 -344178
3.200000 1056673 674483 54262 -609169 427004 -746930 1051954 671026
3.216000 -796210 -1795471 -371252 1810204 16686 1490861 -1964387 -1083113
3.232000 -2054817 -184478 1082824 -822803 41166 -559579 1095051 -403338
3.248000 980369 -656443 410887 419340 -211305 -501452 -584266 1512369
3.264000 -72547 -159371 986953 1429792 -757297 -34084 820168 78470
3.280000 -1625020 -1428344 -990770 331321 -20798 29081 387588 -414795
3.296000 -898591 214548 227690 791448 56530 -906290 -596586 -960193
3.312000 177517 -519719 -285347 333231 -873586 -1032148 -135292 547354
3.328000 -15789 488652 -431422 -559995 805105 421593 -792801 -92921
3.344000 564712 -582961 -1705345 -209727 -1810634 788559 -349460 -513927
3.360000 856962 -514004 326040 86211 -192874 -1036752 -1017991 725233
3.376000 264872 -375066 -463170 -129876 236823 -782004 482543 -180134
3.392000 1379826 275877 1064116 404804 506984 419215 -154618 424804
3.408000 -325056 1011584 -1290750 1562183 766381 -536722 1055365 -1020524
3.424000 -228241 488712 354093 -747603 13317 -96655 712629 -814443
3.440000 573778 132132 -893762 -1059592 -230992 852478 163333 1237667
3.456000 -937767 39418 875558 92599 -183433 -739091 1445556 -386483
3.472000 -696036 -825324 -738664 81849 -798654 790099 87632 1416119
3.488000 -927347 -2166545 565945 1544092 475994 -1671104 107869 654375
3.504000 234917 -4529 1035707 -225192 74421 -1031715 382406 116600
3.520000 413225 -1787893 -748441 -1082475 553587 -864415 309995 -740686
3.536000 223057 -1045923 2623713 583642 -343007 828279 674339 -657312
3.552000 889901 -37205 -1334394 286996 148675 1433847 495722 301764
3.568000 -1436349 1561789 -63432 1664913 -1083592 -683667 -437985 197396
3.584000 245730 -172079 147087 -1523942 144132 110194 -436703 1409228
3.600000 -236047 -344510 -693747 -13536 -1317907 -363135 -1396772 -1224388
3.616000 -955201 -13182 -210391 885452 1809657 540584 -1105117 1506659
3.632000 -1309766 567194 1571677 -198756 -1114423 -1219891 -307016 -45421
3.648000 -127229 1575211 524599 676705 772535 -786869 954522 -1622528
3.664000 150383 -677985 -435151 1552934 631245 540562 -374368 -248617
3.680000 405005 1291885 -205078 -582384 251868 1008010 987679 -86702
3.696000 540492 -570294 -464346 931604 -11528 -443569 -113022 -976696
3.712000 -469063 -1077612 -1748469 -434075 631089 -1010284 1066029 -252726
3.728000 912234 -1115576 578278 -853928 -223850 461413 -1227659 772310
3.744000 228327 -841203 547634 3006267 317000 -40232 934090 473345
3.760000 63077 -738705 866277 -1563735 -905634 -249338 -29399 -668818
3.776000 -1113379 -355861 1580578 -1848795 -1234220 273578 -623676 1239304
3.792000 973027 -1198994 701391 -608760 1527503 707711 -677061 -1620774
3.808000 -133 312241 382163 423907 335345 -921566 -417964 505499
3.824000 -59801 209048 -153468 520478 764625 238389 416096 -398188
3.840000 563250 32773 -490339 -385259 -10811 -468647 -793323 101585
3.856000 333427 121336 -962401 487727 239501 -617770 -1429846 158321
3.872000 -310997 -751208 -1625195 52484 -980009 71521 266443 87186
3.888000 -958484 -152598 -840803 547579 -5301 -1372305 1770193 1063775
3.904000 -393681 -854938 1319025 -316482 -339324 -1064543 -154831 258331
3.920000 -681518 389351 -350430 1231178 -1373487 -662801 -971894 1465097
3.936000 -950435 -435727 263908 879536 1712086 -79164 -1895721 1532333
3.952000 -276427 -140053 401065 169119 -453785 -949527 -1559449 -830829
3.968000 269263 -2004892 -856483 136351 -676069 -1001704 315658 386827
3.984000 610645 717305 -578228 866367 -615522 -137092 -240987 625192
4.000000 196545 -400451 231471 729610 510882 208969 -286056 -168345
4.016000 1260925 268195 1044089 887533 -1215612 46082 -588024 -456433
4.032000 545399 1878541 -412583 1095970 -1038276 -68539 -435735 314836
4.048000 1262592 417229 -1989555 379449 -74082 -1335776 -1699370 -882720
4.064000 -111302 -1189311 458371 183118 247268 -772029 -1440179 195823
4.080000 1022766 1383403 29977 968812 -346539 -586044 -684290 -866313
##END NTUPLES= NMR FID
##END=
