##TITLE= Ethanol in DMSO-d6, 21.7 MHz, LW 1.20 Hz = 0.055 ppm
##JCAMP-DX= 5.01
##DATA TYPE= NMR FID
##DATA CLASS= NTUPLES
##ORIGIN= DIY-NMR Model 3 (simulated)
##OWNER= NMR3 project
##LONGDATE= 2026-09-04
##SPECTROMETER/DATA SYSTEM= DIY-NMR Model 3 / synthetic
##.OBSERVE FREQUENCY= 21.70000000
##.OBSERVE NUCLEUS= ^1H
##.ACQUISITION MODE= SIMULTANEOUS
##.AVERAGES= 2000
##.DIGITISER RES= 20
##.ZERO FILL= 0
##.SOLVENT NAME= DMSO-D6
##SAMPLE DESCRIPTION= synthetic, common time-domain noise, LW 1.20 Hz
##$BF1= 21.70000000
##$SFO1= 21.70000000
##$SF= 21.70000000
##$O1= 0.0000
##$SW_h= 500.0000
##$SW= 23.041475
##$TD= 4096
##$NUC1= <1H>
##$AQ_mod= 3
##$DIGMOD= 0
##$DSPFVS= 0
##$DECIM= 1
##$GRPDLY= 0
##$NS= 2000
##$TE= 318.0
##$PULPROG= <zg>
##$BYTORDA= 0
##NTUPLES= NMR FID
##VAR_NAME= TIME, SPECTRUM/REAL, SPECTRUM/IMAG, PAGE NUMBER
##SYMBOL= X, R, I, N
##VAR_TYPE= INDEPENDENT, DEPENDENT, DEPENDENT, PAGE
##VAR_FORM= AFFN, AFFN, AFFN, AFFN
##VAR_DIM= 2048, 2048, 2048, 2
##UNITS= SECONDS, ARBITRARY UNITS, ARBITRARY UNITS, 
##FIRST= 0, 6.0264625, 0.0295532, 1
##LAST= 4.09400000, -0.010382443, 7.3637057e-05, 2
##MIN= 0, -2.737062, -2.0387838, 1
##MAX= 4.09400000, 6.0264625, 4.0006558, 2
##FACTOR= 1, 2.245032212e-08, 2.245032212e-08, 1
##PAGE= N=1
##DATA TABLE= (X++(R..R)), XYDATA
0.000000 268435456 191442742 47835316 -31147820 -2011220 56449282 50886440 -16175819
0.016000 -82410678 -111417551 -119162622 -121916378 -102821872 -54791931 -4032178 5361423
0.032000 -23290105 -40640055 -3479472 56876519 82700752 54052732 13179416 7271726
0.048000 24363281 31632797 11323280 -12322044 -13759441 647654 6476630 -2423932
0.064000 -12034175 -7887787 4036578 7377686 -1540115 -5991460 -2986203 2097816
0.080000 4198704 3097683 4870362 8300269 14171529 13704435 13090671 9603453
0.096000 5427363 -1685961 -9756038 -19583487 -30645817 -38478405 -42806552 -46249882
0.112000 -49803223 -48284850 -33790676 -9408153 18855656 34035599 38109141 42429820
0.128000 53319740 76222557 89031949 87433188 66586370 32074067 -4535420 -32529878
0.144000 -39195868 -26575915 -20739807 -47567056 -92907970 -116001428 -85889849 -23641225
0.160000 16458587 13495668 -8356791 -5770123 22431836 48305141 51934080 43134340
0.176000 39033423 40061324 25774839 -2594945 -18801571 -5153152 15056518 8510175
0.192000 -20461367 -36123985 -19127065 9922600 14329347 -7043172 -21262366 -6164862
0.208000 15422106 15760093 -5682583 -19813368 -5123866 15524438 14308465 -3831301
0.224000 -16054377 -3600263 12367962 9359802 -9285711 -19090363 -11113290 -3604333
0.240000 -11230983 -23374678 -25744281 -9081847 9620105 10968791 702593 399865
0.256000 14560745 37572687 49594726 46413944 32900162 21650359 12146743 5762910
0.272000 -257740 -4047865 -16666545 -33933004 -49527969 -53797926 -48363999 -36843970
0.288000 -25095526 -19648401 -8793677 -621590 14198956 24374040 31048199 35227062
0.304000 34513715 34963110 29334505 24123281 12033577 269563 -5777673 -7468827
0.320000 -11488368 -14464125 -17864851 -17200460 -12349518 -10231324 -6715227 -5647958
0.336000 649039 3451912 4646726 -1992621 -2024047 1838112 8144013 3449883
0.352000 -3924352 -3976587 481579 5593178 2778115 -3880403 -7761343 -1659122
0.368000 6247307 1310664 -8675087 -11742528 -2769220 6659777 5350090 -2674123
0.384000 -1941385 7988189 16332652 12528589 7888308 14604893 23371748 21851586
0.400000 2528062 -17882918 -20420331 -6466145 5276482 -7559925 -31790158 -46978951
0.416000 -34790908 -15484793 -2622062 3316874 4465200 4987772 6676405 10047798
0.432000 18708692 32700052 40327227 33333526 11566386 -4195250 -5979540 3718818
0.448000 5521034 -3718763 -15967462 -23391136 -21304480 -12749535 -8111244 -7990342
0.464000 -3244997 -2400224 133728 67523 1011096 3906800 7003373 6133140
0.480000 3816266 1602471 -243893 1941964 1183719 -50431 436405 -2943802
0.496000 -1806214 205612 118889 -240944 1104312 223763 -86118 173521
0.512000 372264 -472599 1031467 3295343 3541077 2623807 5485883 4965047
0.528000 6437061 3476637 69753 -4101613 -5547482 -6843985 -8516370 -8870542
0.544000 -11395336 -10598775 -11413669 -12694130 -8223901 563346 13270784 13979817
0.560000 8767410 890240 6246411 18058722 25641045 18970738 6905485 -3740052
0.576000 -7530440 -5679887 -7176773 -6153739 -9247586 -11158578 -13672421 -18054343
0.592000 -16885278 -4328441 7401357 7540681 449630 -2090534 1980561 8736444
0.608000 13263530 8059193 1404645 1252831 4807488 3684219 -815676 -4571407
0.624000 -3468385 123906 1468290 -3072603 -2224108 -1520017 2243487 1802784
0.640000 -30391 -2060949 -2098248 1911674 2662618 349669 -1062391 94865
0.656000 2471005 3452486 -250645 -609863 213085 91087 6473 -2961781
0.672000 -5259531 -5235518 -5595462 -4165211 -3669409 -1178647 891921 1250200
0.688000 2524598 5200817 7375223 7756279 7009477 9117594 7223065 5902546
0.704000 4645845 969529 -3056237 -7048444 -7812611 -6851528 -7311019 -6555187
0.720000 -7760379 -8981901 -5583841 -1392620 826704 3700904 4835875 5617941
0.736000 5402697 6304763 5163228 4960693 5716388 4023738 400299 -3069030
0.752000 -2696177 -1927864 372747 -6852 -1925350 -4438075 -3064953 876097
0.768000 -420729 261290 201233 -274111 2005130 -87775 -1935577 -845766
0.784000 1461537 2468842 2194109 -1788397 -3264143 711723 2030224 517896
0.800000 -3278934 -1793368 421060 876523 -1735052 -4170025 -2412407 -1228833
0.816000 1739811 3697742 923490 420767 1474316 3933010 4868494 4454346
0.832000 3339091 2125142 -1576737 -3158029 -3601949 -2155532 -19881 -1738482
0.848000 -6029631 -9272260 -7354802 -2418058 974254 1185284 730924 524269
0.864000 2694493 3576490 6786512 7398060 3528640 4557265 813174 623029
0.880000 157087 -148165 -651195 -2404491 -3198372 -5767271 -2108815 -1698826
0.896000 -2746190 -897935 1054015 333902 260546 -162070 2503565 -24719
0.912000 -649788 -487764 -100898 161248 1105443 519986 208512 918141
0.928000 168021 -1167126 -1104420 288392 837830 -288953 -1070630 675966
0.944000 -1179599 1002642 705311 402839 681404 831490 1819847 -982475
0.960000 1730981 657190 1663623 1307601 663689 -2668429 -4497289 -969239
0.976000 -1873306 -909551 -3014635 -3956706 -4695101 -1873798 149316 279375
0.992000 2498265 3299173 3020355 623833 1934086 2412089 4828681 4108361
1.008000 1946269 -2383551 -3092058 -1878952 1228545 -1381674 -2741430 -3691603
1.024000 -3044499 -1849850 -1072770 -1332736 760587 1434118 425154 1555662
1.040000 -1431864 -12936 559513 -686852 -81445 533929 -314093 1065931
1.056000 -340660 102752 -995922 -151169 483245 693113 432704 1056606
1.072000 416249 -221809 775651 -289604 1911762 -51074 -864889 899533
1.088000 199178 1141516 -230038 285873 1586056 -266845 -157238 -383149
1.104000 1426587 -2070887 -2165262 -200868 -878658 -1988760 -337021 469898
1.120000 -85915 631117 1652970 1743954 2238495 1484447 3755268 1676288
1.136000 1608446 145718 1640878 -231975 515477 -2380358 -840342 -1407674
1.152000 267786 -2634139 -670049 -423937 -783988 212295 266001 1957314
1.168000 984113 1575594 1277553 1438708 1842201 1131783 -485317 220083
1.184000 -1034668 -386879 -526277 -759206 857262 1245612 427936 -1679416
1.200000 42257 827824 664432 901087 963818 -230874 -293825 198431
1.216000 -624442 -54779 1601436 -350863 648165 -40095 1500428 -1212658
1.232000 -1346268 1311112 808240 375202 -467722 -660279 -336081 193820
1.248000 -302773 -2249674 1925745 881811 967645 -1227392 -301061 2068336
1.264000 2062919 -205296 50987 -472664 -560803 -140039 177318 298533
1.280000 -1039575 652566 -1085967 -590331 324259 -1218753 -500382 -416728
1.296000 1644670 668238 828924 2486864 59097 847856 582024 -273981
1.312000 81231 -667357 -371689 -26064 -163175 -1050400 -986105 1066741
1.328000 -642881 -394842 1633128 750524 45975 -739889 -857303 18325
1.344000 97106 -286260 1231019 1050541 -943865 823574 -1510883 -1383304
1.360000 -398645 664840 13774 -401075 -1191419 1210432 -46749 -378271
1.376000 767831 291916 -1095897 57478 452235 934913 1228642 125412
1.392000 726039 -532974 -231895 454837 -126594 510367 242180 -1646466
1.408000 -869815 -95895 473069 -840522 -627663 -538027 -1653751 -529440
1.424000 1199409 -169794 2589736 -989902 873680 1481102 2024237 632759
1.440000 -144531 -675148 878123 -100240 -380932 -129570 -892300 -480767
1.456000 256589 -2268953 -223413 1362776 565919 -258078 188000 1108920
1.472000 -187451 -578081 -666282 -613405 595458 1086819 -498480 774943
1.488000 430146 -1577742 -2166313 882472 -237944 -814325 494877 -1346613
1.504000 627437 -1681583 611583 833818 738546 -718023 -2716037 1137530
1.520000 1597015 -1402792 -1317754 -184501 -477037 -414220 -499457 -1520082
1.536000 -543320 -1215478 -1173720 567820 295410 100678 -520934 -21501
1.552000 -287701 669551 -137404 180444 -109749 746052 1129795 -69721
1.568000 599510 1418031 97350 -609982 -257296 508211 -803482 779895
1.584000 -249111 -1000327 -480050 -2193763 -901799 103794 -134663 30677
1.600000 1010183 -675961 994842 -745954 347542 758836 882021 972527
1.616000 201584 -993107 -1091069 1014860 -215626 951937 101094 -598808
1.632000 1704559 -430182 286558 11575 -616567 193751 701531 843474
1.648000 -616947 225614 98391 300343 633947 748937 -1775969 -1104452
1.664000 -305078 -662943 -1057506 -343132 -11868 890788 -1280479 857367
1.680000 -1380497 1109475 554878 -1321905 -690000 5571 -322285 670472
1.696000 651974 -542570 1339377 -784627 669280 -1456966 -990885 389213
1.712000 1721917 161637 -407686 -2201194 177960 475513 -1029404 -1301079
1.728000 -1113120 233834 -434279 815233 2012444 101255 -458141 -935500
1.744000 -963238 137385 895030 -2178599 640172 751753 426699 423155
1.760000 -1205271 -1255206 496363 -756654 -413593 1012576 137203 -311276
1.776000 145584 731464 -646764 -328414 2040989 -645098 -733688 43672
1.792000 566786 171278 1037683 -192008 -839616 275703 -961314 198379
1.808000 1914542 552533 -676605 654144 1148959 -880490 -48663 1210243
1.824000 -310158 1398730 -874246 -1010745 1356832 2621445 -390931 -294966
1.840000 -1120594 1410689 -758122 -1443168 914918 -292495 543852 250027
1.856000 -210994 359336 -513262 -350830 -622410 -1207559 1333820 63120
1.872000 740045 -1160359 -142152 551001 -346173 -362411 -610607 -142170
1.888000 674312 1112081 291760 1258632 265295 -380706 235265 333764
1.904000 173103 1436017 -250161 -566910 -618572 66884 -957629 -993303
1.920000 871971 -404211 -487775 1245859 566766 -802132 423498 648883
1.936000 -1303667 511372 -1073328 846370 352162 1527812 750315 -1751330
1.952000 -1444625 -605577 775244 -1335312 1683132 -319646 421314 821604
1.968000 -595305 -334156 104433 -821822 -494111 244159 -785751 1033611
1.984000 824172 -1021063 359767 377148 -103908 48540 -563078 -620589
2.000000 1382719 1528172 700695 409518 402420 307553 -52515 -838280
2.016000 547792 -622394 -311245 183300 355918 -1020460 155936 -576872
2.032000 -144576 1029785 -981545 161733 -7937 812192 -1888020 640996
2.048000 182183 814716 -800793 -248964 -1199075 317326 1680334 -2523982
2.064000 -2214684 299123 -1593427 108727 -562725 721073 481841 753124
2.080000 621329 -1128246 -74740 640163 827947 240467 755237 -669632
2.096000 -677165 -1433558 677379 1563520 446375 1106858 -708348 -126643
2.112000 2058017 -23216 -483179 892523 -260204 862116 -246230 -468437
2.128000 -895931 664582 -444484 -1513248 -1748668 -782735 1598330 546005
2.144000 -718960 2311609 -174397 -908063 663879 -944367 1563246 84286
2.160000 -421555 -583900 326736 171190 492018 -322333 344006 101025
2.176000 347543 -830074 592198 670053 804890 -398664 -39819 -200122
2.192000 355497 32379 -125237 -641774 -205583 384485 -96772 143041
2.208000 231445 710241 -605584 -1803136 -30082 1017467 -399203 -207344
2.224000 -512937 120697 22046 2122002 -142357 216161 -995753 -201719
2.240000 709554 -112474 1896577 106693 503884 345438 -62307 -259998
2.256000 -292675 -816954 806645 -55662 166914 820919 1287219 -1060884
2.272000 934847 -410031 -214241 2454 -50782 -1134007 1974030 1036097
2.288000 848598 1083857 -1654723 76059 1011642 17090 1058622 147467
2.304000 302775 -295852 156947 -1028488 -428756 -532825 251446 -47181
2.320000 -808679 -451704 337298 -1586848 1283961 -1036933 -501006 348381
2.336000 778243 -1239682 50748 -124919 -367895 1650896 -746118 -916405
2.352000 360600 -315398 174474 1115874 693288 214329 2216637 -848471
2.368000 -557873 -783765 663366 745965 137662 1617671 -844379 -317942
2.384000 -290405 -602488 -1729700 261365 327445 677328 -1559732 -551656
2.400000 -801282 608469 881201 -209783 -1042850 269273 -600768 -434457
2.416000 660094 -386162 1326665 1455485 -729671 368094 -1179791 493179
2.432000 825675 -658945 -57655 -960028 18523 -1123772 -419101 679985
2.448000 166447 1275042 -52451 -1017498 195182 -587850 -365824 887984
2.464000 363083 -256740 -725598 -903716 708318 20920 551307 -337081
2.480000 493256 -512352 140416 835272 185761 1511191 -1008918 1507402
2.496000 217726 993033 -1630378 614354 363108 597415 -1951853 229702
2.512000 -863034 -370972 -4889 498770 544597 604594 1790192 -486442
2.528000 -332469 1526541 -1501467 -249148 -19260 -914398 2358455 -920030
2.544000 278980 443845 -973558 -1078957 -758314 832541 446031 84755
2.560000 502392 -136605 383452 624262 -606260 -443033 97009 578879
2.576000 -486476 1303319 1154276 -1615400 -337964 -892894 1435972 996921
2.592000 700879 -1440968 -1028522 -462290 92200 586223 139500 128590
2.608000 1713505 120822 89959 2115736 -678514 567593 850260 379062
2.624000 557620 -1661816 -1759958 -552119 -1462316 1954 -1232770 -1116064
2.640000 341104 -644832 -1161345 -230833 176044 -248669 467284 855228
2.656000 -1491079 -40545 -597806 43864 1385880 891076 1350259 777684
2.672000 -760379 546532 438098 -1380221 -229730 -284355 -1261263 2667283
2.688000 211414 -1085635 2074277 -103366 -732917 498772 -162588 -1780510
2.704000 467754 -179032 -941294 177931 152198 492279 471381 819051
2.720000 658901 -1624898 1079259 -85514 549656 796889 834764 -1077149
2.736000 261601 237975 573556 -527564 1138151 -782000 -59064 406762
2.752000 202651 -13662 -350180 -997649 1922022 -885045 499799 -313197
2.768000 -281302 -16971 -749035 331074 -727744 -146154 -2130138 349081
2.784000 -1560598 985449 1929361 -330648 -50308 -514132 587490 49065
2.800000 -272265 1457020 110171 55565 258398 -1085368 -715333 -1133606
2.816000 633754 -613824 444013 -129987 -105692 -1171193 -405994 391105
2.832000 -375905 1180482 -508940 -141420 1087235 -940602 -503047 191205
2.848000 779989 -416505 280371 691839 -1674710 -475239 -731446 187879
2.864000 1172864 806378 -596348 125406 -528306 979792 -95876 905616
2.880000 -1414214 551920 -1018857 -416968 -1753232 89233 -308134 696621
2.896000 -140338 -290165 294435 2259509 14529 891862 176834 -60034
2.912000 -1307317 187198 -1072144 -150606 278110 725739 -225640 1150579
2.928000 -147066 1451473 -897731 -797774 1314630 -197298 1336957 -564518
2.944000 -485484 -1415501 601564 -762647 -1296256 41883 -1577204 467209
2.960000 1257249 -1529336 -255593 800431 484937 729998 -579030 1237233
2.976000 895406 -371454 -72131 -496645 -1113619 -1088332 -773524 45430
2.992000 1954018 -746295 123311 373546 -276454 -1550625 435826 1803946
3.008000 -674420 2124987 52891 559856 654501 -702523 -46392 618945
3.024000 615102 811115 55087 -901362 920567 -176908 -585227 -1432329
3.040000 -337540 -876065 569960 865293 -572087 -1256468 266019 -654535
3.056000 -2033137 445680 -274005 -112446 -512712 -224145 -783225 -531200
3.072000 -710786 838829 912400 -889014 1000985 1227133 -1595457 101555
3.088000 -35593 1217256 -479611 2442695 -735510 231325 -1011032 -280724
3.104000 -140435 97882 -845285 -160650 -52719 -199919 1117757 -864381
3.120000 -203334 1548303 326173 -374394 -285637 -719439 126954 -1100864
3.136000 -1129762 1172963 -37771 845778 -478764 -351465 1790691 -654508
3.152000 -1647946 1369794 801982 -1288180 -518575 1961245 1190226 -871961
3.168000 1459929 -661213 292637 -865474 -468771 132872 1061226 1257909
3.184000 -1770600 372706 -999507 323131 -867396 582425 1181475 -467847
3.200000 -394795 363907 -91681 -28019 260468 -1462213 1030706 -671239
3.216000 -731931 -935658 227882 -961537 96593 -135347 701887 -835260
3.232000 -445884 -1656363 -590674 1048371 1189344 970651 929266 -829086
3.248000 -2090091 -1033795 238474 -1510963 -490986 -701678 125595 58016
3.264000 -589711 -1277831 -1059965 665240 261320 1231432 96828 364794
3.280000 1208031 -70920 -1984329 -511731 53588 9211 746491 -1191815
3.296000 249617 -1309933 715927 -5532 457285 -678389 -1574477 -358770
3.312000 963165 941315 -165792 1028745 -121101 -936980 -504950 670064
3.328000 -1622080 -1834700 645847 697500 1880220 634712 621485 -147699
3.344000 -1270200 -1119022 684036 680202 -1061030 1033899 -283928 -841687
3.360000 1321485 520167 -264859 -640977 -223948 -604992 -1793838 -1196402
3.376000 458340 103535 567768 242932 -2240491 -100099 1233243 -934456
3.392000 -966957 -295886 -374919 -247794 1388931 -195632 1156412 179542
3.408000 -2351871 -1586725 1800104 -191122 -1322755 316676 26291 1131048
3.424000 679912 -341512 -177297 252840 -856032 -1356457 317699 487786
3.440000 -572736 -128296 -508461 -673494 1454805 -3948 162145 -807609
3.456000 816491 219272 -9695 2217223 -201884 -1054480 322762 1796278
3.472000 1724020 1794047 624893 948678 -943763 -943593 -1337132 1127778
3.488000 -2060082 -938980 75399 686848 193680 -796432 -357983 31111
3.504000 920943 -1078250 1237734 -552207 -713992 380805 1573395 -40820
3.520000 29904 228312 -802269 1081996 1075957 1018943 -257329 973779
3.536000 -1147896 450067 166954 -1084637 -222099 -1097451 68347 -1021249
3.552000 -229552 -149601 399891 -1068965 -414970 350727 -1061073 258507
3.568000 -347167 2079551 10239 -11115 -1420508 545582 172802 -633157
3.584000 1466134 -1208474 -41978 -1383104 -192330 -253119 114638 472369
3.600000 -988704 946648 34476 849136 411063 -82426 -869219 -1280723
3.616000 562669 1283018 -210429 77141 679215 -723837 -514812 -319907
3.632000 1304278 1072758 1383596 -669432 -2582960 1165241 373424 -715668
3.648000 -162133 465527 -408326 -732088 -156212 -691336 213987 818159
3.664000 717711 -897575 164722 1943341 -1552450 -430974 1069123 57556
3.680000 -559011 449355 -346194 -1123832 515893 -511187 765435 -153163
3.696000 -1465283 -339706 -919442 246833 -826674 159810 -206509 -198381
3.712000 653982 -466494 32532 -1293934 -62321 9131 43859 302942
3.728000 -522184 320469 -2682437 322433 -187906 -736445 261845 -640225
3.744000 -1678054 982709 943646 -453340 -928535 -1398312 -1016068 1091934
3.760000 -83200 -973477 402932 -1243126 1886269 83307 -507481 -1217501
3.776000 -324007 -217476 379527 -940841 4530 -818980 -442490 -339629
3.792000 806969 -72405 402110 720325 -690596 415771 -1327686 -152200
3.808000 504349 607971 -86821 -1143888 1329993 -462838 892082 -25335
3.824000 508347 1485853 1575857 1986467 -214542 167939 -929330 -169281
3.840000 1089271 -1067754 147647 -478728 536096 569768 337157 749976
3.856000 903515 1104974 -1035503 -938942 811183 1355446 695887 -85043
3.872000 1117832 30485 499402 -793272 -76932 -1234631 -1581745 767074
3.888000 -262614 -1134175 1412103 -12190 -2877 -1443145 -1250885 -246430
3.904000 -1168962 1241930 -995282 1386781 1159867 817384 -588535 -1038903
3.920000 -480951 -656541 274366 -630633 213983 198014 -1214525 -564512
3.936000 456988 265744 132285 -544177 -235089 -1067738 -465557 1622234
3.952000 398359 338132 739748 -1144902 1219596 502268 7728 -419231
3.968000 -262667 490656 -529169 18013 -143372 -593233 1691403 704025
3.984000 1511152 -484322 427623 -1379634 6060 1166154 -473049 -704701
4.000000 1310293 -1854234 -440373 222433 -1399729 100763 -1260463 594945
4.016000 1079651 -632301 -142466 63202 -348458 945941 -409025 -1124884
4.032000 -637876 674556 -879766 -774857 -408830 1225775 651869 -1386806
4.048000 -437537 -626426 461907 80455 1025847 -708297 -986234 236164
4.064000 -287305 -660204 394814 387223 82622 -1242236 -125606 1019920
4.080000 1114908 318790 26101 215600 841092 -506923 400419 -462463
##PAGE= N=2
##DATA TABLE= (X++(I..I)), XYDATA
0.000000 1316382 150575576 178200373 99345264 27426129 43093530 108586427 146928808
0.016000 119446433 71495353 29407040 -10389524 -58349003 -89173458 -71553481 -31501906
0.032000 -17668869 -53026601 -89991193 -77208399 -22846176 25595822 25855304 -800715
0.048000 -4349399 16871267 33164761 22700718 1119804 -3259695 5727957 12290414
0.064000 5883327 -5315316 -6496840 2885470 6728905 748554 -5341489 -6686883
0.080000 -2168801 -480092 -2389517 -2958999 905291 7374578 13140973 17005728
0.096000 22748257 26826579 29520701 29360122 23547216 15748933 6041978 -5095464
0.112000 -20366020 -38763417 -61242083 -72963584 -68493282 -51534561 -38865831 -36747563
0.128000 -35789896 -23267724 4937906 40054898 70629440 91526886 91169314 69032571
0.144000 38906866 28804648 44841636 61331690 42831469 -14672839 -75323664 -90813119
0.160000 -60514639 -26729819 -26952125 -47516316 -58528644 -38222118 -10434716 2315525
0.176000 7388170 21876882 39497709 40796315 17749313 -1693502 5865681 29312335
0.192000 30336698 4758011 -21728066 -18103507 7679165 16966836 -2843892 -21152766
0.208000 -13651868 12187934 18109785 949618 -19087474 -9789358 11047880 17755508
0.224000 3672166 -12131144 -4580209 13453738 19217325 6484550 -5510983 -1716465
0.240000 8024632 1777757 -20745276 -33054906 -25784572 -13303695 -11791149 -23414207
0.256000 -35113297 -28316444 -5550647 16565553 27670844 35341688 32712411 33939772
0.272000 33963751 37923660 42902896 38129547 23853234 2845045 -16688488 -27124627
0.288000 -32547167 -34487738 -38464530 -42299720 -38938664 -33074945 -22347627 -13796163
0.304000 -2814314 6900036 15768965 25378000 28881399 28944580 22922474 17008159
0.320000 14985729 12160065 7913142 878071 -4229330 -6985432 -6921213 -10343342
0.336000 -10014592 -6552174 -225136 897903 -3427837 -6208199 -1140501 4857733
0.352000 5132036 -3292270 -7300622 211128 5501874 5010127 -1031852 -7842922
0.368000 -1697186 7577170 5042890 -6876425 -13442649 -8760060 15310 -2308068
0.384000 -10294076 -14382202 -6302856 2015018 711444 -3071165 5559777 24049809
0.400000 34158811 25384633 5532845 -2572240 10677384 28104517 24488521 262706
0.416000 -26004419 -32311095 -28745767 -18578961 -18178196 -16295829 -17192879 -20640935
0.432000 -21049091 -16788715 2547788 26068601 31926978 22982773 9575270 9216728
0.448000 15654935 24151099 19886941 7498648 -2730624 -6609277 -7558952 -8127546
0.464000 -9993285 -10338757 -7510776 -7920465 -6384579 -6107975 -2201850 932906
0.480000 1957650 2460741 769482 1761284 868254 1644295 -1771299 172464
0.496000 16415 -71324 -690818 322541 40905 -326727 176524 -219035
0.512000 -1384626 -3310214 -1823203 -713294 865702 -1598999 467207 2056001
0.528000 4871602 7576138 10303973 7494250 5831376 4463198 4701402 3383468
0.544000 -1142368 -1113260 -4344929 -9808244 -17966660 -22049627 -16656910 -5217975
0.560000 513891 -4753712 -11364251 -11658887 2895491 16716590 20972016 18236019
0.576000 9593015 9486806 8430144 7104463 5924416 6456686 4618442 -2040996
0.592000 -14251408 -17948002 -13413723 -2992268 574721 -5131391 -12551821 -9804768
0.608000 -640559 5000420 5914566 316473 595513 4625828 6734102 2397804
0.624000 -2858300 -818284 3826171 3714907 -876054 -3459699 -2150919 1684854
0.640000 2565196 2024671 -1676873 -1337296 1936820 1885965 -755147 -623623
0.656000 1173727 2477717 2359910 505154 1352697 3481701 584752 1173235
0.672000 2128393 872801 -2901776 -2365688 -6666959 -5943237 -4995290 -5458259
0.688000 -4169651 -4753820 -4369717 -2056376 -1154574 2932857 4907598 4918423
0.704000 7729761 9851220 10284848 8323208 3473413 1637198 1781464 -77727
0.720000 -954733 -5243940 -8481828 -8346460 -9186625 -8070213 -4092216 -3250366
0.736000 -2399601 -428691 220230 -1257870 2607723 3853294 6193058 5170608
0.752000 3136057 1598310 1802663 1422446 4326830 -2208006 -2782605 -1125501
0.768000 -823034 8215 -1988291 -2875654 -913230 2730655 2458176 718542
0.784000 -2139395 -1069246 1565224 3200501 -937699 -1073497 -687664 2149909
0.800000 2846074 -1547310 -3156637 344174 630350 74103 -4051291 -3602629
0.816000 -3907529 -1695065 -759614 -2916617 -2478842 -1248217 635282 1753645
0.832000 4462997 4681070 5912237 6686565 3028195 1103505 527409 2746327
0.848000 1335126 -347870 -5435265 -7748428 -3417773 -4361595 -2822021 -3898314
0.864000 -4084849 -3371371 -1138190 427893 2116925 3428649 3603783 4384324
0.880000 4209510 2958247 3050839 3663142 -88386 1372628 -1655049 -236808
0.896000 -1333159 -1601068 -1682943 -2079419 -1092248 653936 -2495082 -860502
0.912000 823768 1202941 1893901 719281 -292393 -249760 499198 1381367
0.928000 989938 -1266011 -451870 -686697 -304179 495418 539227 -1071976
0.944000 -1078205 -348490 204334 -595198 -923677 -11898 158999 1836493
0.960000 -31334 75557 -184058 385908 3503155 3246568 1358271 -155116
0.976000 -412165 1982928 1405026 36176 -2755281 -3886060 -4266408 -3898013
0.992000 -2091792 -659244 -266969 195479 -1889008 -1896969 -14119 4050763
1.008000 5580815 3447079 2150531 1401183 -19650 2040586 1394577 143216
1.024000 -1054799 -1967387 -3033412 -850789 -2951187 -2412461 -586907 1001440
1.040000 -58028 -2512419 -1148625 1134199 1522139 -1473752 177581 514158
1.056000 162831 -777423 -238701 -787243 -176946 512052 1798966 -802413
1.072000 -316958 -1467711 483833 -528701 881927 -393533 -620846 299344
1.088000 642005 1216403 742284 531037 125443 -998669 1037068 1412952
1.104000 -185434 -95386 -861811 233403 21311 1365873 -1942125 -531423
1.120000 -3074715 -1860578 -2072623 -3439236 -206702 18959 1456689 162474
1.136000 300001 161097 3495213 1844367 85100 2622181 1273041 -902783
1.152000 -659337 -15673 -253146 -1818522 -2051469 -2605153 -1197337 1131
1.168000 1721192 267453 -518906 -552599 382301 1817234 304363 -505135
1.184000 497204 1259771 675986 -1648234 -654519 -747578 -82319 414997
1.200000 -1249810 -297884 1524712 813872 -490048 -1085679 91674 258744
1.216000 896164 1440068 -1412385 -1533736 1140577 1748254 295661 -1555619
1.232000 700293 -320310 887163 182662 -846436 -27648 -1123511 -1829044
1.248000 -662217 -2227074 -2118676 218056 897533 -567071 -604006 342430
1.264000 554500 1419396 19782 2066233 1059614 245784 889336 163248
1.280000 -24917 -520440 537560 371858 -1503281 -1041976 -2020515 -1588403
1.296000 -686383 -402562 -376711 128080 -573232 -602356 701406 1639853
1.312000 722173 -838380 1264066 1784537 1312486 1069532 720927 -1483299
1.328000 -656640 146736 -666786 -160751 -41353 -927365 -1055515 -765438
1.344000 -770911 -178869 -887864 -1725510 1498186 69313 779844 613741
1.360000 773651 -2039440 -222158 -618768 -239035 168985 -2526624 585699
1.376000 134449 -151046 -351400 692873 114047 -1149573 60359 -919451
1.392000 679551 -819699 101014 69377 319527 964724 448891 590307
1.408000 -280183 1656486 -373475 585902 -372824 -53596 -122074 -41580
1.424000 -1298390 -567178 443990 164912 -1000638 -17116 125418 -91063
1.440000 2126081 46509 1576352 690082 996534 -371930 4282 1681647
1.456000 -163213 -911738 -1150437 152097 -2058589 172123 1198392 -863681
1.472000 331589 -97113 1232774 -432850 915317 570660 727653 309573
1.488000 89112 -1383198 -356114 915282 -832210 413323 -1303750 -387943
1.504000 -110210 433904 816804 -1098263 -498944 472484 -1524810 170542
1.520000 -118166 358158 116247 875265 -101176 969547 584212 111397
1.536000 528357 943999 -198345 -299391 -193581 461628 -14982 -661909
1.552000 140928 -616485 -676382 -742444 197331 82592 -1724675 -26179
1.568000 468883 25788 235584 281672 641237 990629 80809 -99989
1.584000 33159 -550798 41388 230398 -1268901 -858943 779176 -741645
1.600000 -250789 -15263 97065 2039719 784751 -925803 515759 -1224243
1.616000 469531 193090 -47799 1889230 539199 881035 645724 116584
1.632000 807559 2149353 -163729 2410049 596787 -993445 -201000 1402393
1.648000 -544452 657790 1538790 30471 -1190992 -466699 -54226 -365661
1.664000 115462 1512773 351658 -31324 -91254 -423098 -1363079 487152
1.680000 1230320 -746449 -55517 -579608 199683 -1036330 1032593 -390251
1.696000 -70295 -1973964 -168919 620426 1051191 1125650 -734403 -381113
1.712000 1325713 -1115764 14935 -191646 513218 -1010076 -841653 1880560
1.728000 -662969 958530 -125080 314366 882918 244724 -1228101 844419
1.744000 -892588 -668785 -642424 785108 442319 1545629 2426301 503179
1.760000 -641492 -871834 968169 -391510 -891345 -1154333 97336 -1517808
1.776000 -815217 720290 -2379766 -880885 670205 -189108 1516303 -397678
1.792000 -755744 -474929 -1225396 1337342 690520 -118327 109523 23151
1.808000 -496825 526189 367663 222689 1310797 -1200534 610306 98853
1.824000 83951 692947 302889 946592 -329783 -292536 -1364626 247653
1.840000 271589 -64777 -799453 993398 -1585867 929100 -32029 254133
1.856000 160010 -1600536 150542 319302 673973 -479103 -1073900 -1316154
1.872000 -1109262 508547 1072159 1442028 1485086 406302 61649 -764081
1.888000 1535252 310073 -1374390 530581 1139054 863904 1672721 -1278993
1.904000 244745 175959 -727160 -907557 -333427 1072696 -744802 140430
1.920000 -62454 1117378 -223020 1601471 202348 345356 53187 -176060
1.936000 -878514 1202264 306024 -961506 1061439 -53744 -90296 -1106663
1.952000 -166954 -381183 -409996 -895371 -119837 -2029580 790204 -465579
1.968000 -34640 675047 651986 728918 -1401787 -464459 856901 -248319
1.984000 548063 176088 -1139701 527152 789693 -186436 -826583 -505498
2.000000 504115 -67366 -173355 703089 440346 341998 -788934 729528
2.016000 547499 614960 -322967 -666575 -64234 -81677 -602681 -409349
2.032000 -197640 1001271 538874 -800223 -373859 -556581 -96667 12653
2.048000 997851 639100 1299170 -444843 -2153326 8033 682018 429180
2.064000 592641 873474 -239817 72986 723 372575 -1074976 -1481792
2.080000 379720 -1725345 -1274440 776640 1226220 -1025069 162815 -717669
2.096000 484625 -764360 -200629 33525 -281674 -465008 10572 -210622
2.112000 2190766 239938 -90502 -581575 -794945 -1440813 -282094 -704839
2.128000 1081535 -153104 455575 249999 822861 -1521432 -727961 -931255
2.144000 -1449450 -619152 829411 -654824 1558144 -951727 1496104 540696
2.160000 -1065227 -156448 403091 2466660 182316 -523338 -1930023 236780
2.176000 -1123895 -285376 176736 -365156 172343 -385114 -1609287 -204728
2.192000 290409 1151984 -2231447 81449 -1176233 -884542 82351 -475817
2.208000 -1073701 -409475 -751380 -719770 304255 1499486 1058958 -319206
2.224000 692227 -156917 -275343 -1507545 1767449 -706038 -803301 -428823
2.240000 797521 -1493963 -1789752 512385 216999 -269215 -1221469 656022
2.256000 -307031 -1274419 987720 -322675 517518 851520 -316481 834780
2.272000 79346 1312595 -960775 -1418533 -681032 -1623984 -238942 -188236
2.288000 723842 -890925 416245 467969 -2341986 -579896 444772 889522
2.304000 768255 -1223606 691144 103635 575772 -659932 1012006 1707353
2.320000 145106 -967282 -1274024 97222 1137889 -548421 -953371 419013
2.336000 167536 458259 408732 -711678 1315902 1310589 -897435 -66729
2.352000 -758795 45050 208311 -585833 -235603 -1075882 829952 598724
2.368000 -71471 -1627518 636091 1298134 849370 -784729 82281 -606794
2.384000 24608 520341 1621085 -429812 1641965 -117312 36630 -446429
2.400000 1052050 1111684 -570338 737856 521810 -1032820 250480 927850
2.416000 -209772 445261 -1550233 484089 602690 953131 631641 -375261
2.432000 1530327 935446 -1168967 55146 149593 -21661 234434 1606601
2.448000 566697 -904966 -943069 137997 -329116 -91407 -434302 -1097805
2.464000 -1055893 -1621108 -1653068 -25103 -1631390 221184 759083 -895919
2.480000 -547331 902597 -416596 1546731 -668846 338591 -1271887 -267381
2.496000 -769600 -922235 27789 499438 -1879281 -224638 -1211455 -498623
2.512000 -295466 164574 505865 96469 -536043 -1270343 1676557 -583084
2.528000 631932 691793 359654 -737131 377778 -690260 1845597 717984
2.544000 -398471 1580817 130875 1799485 798472 -1013633 -269964 -76095
2.560000 -1725983 -482548 305881 1245523 1631873 1384309 -365642 -408241
2.576000 -323643 -897695 381396 365762 71600 -1461200 -307166 -1745014
2.592000 -867186 -507414 -220519 295327 272370 322734 515502 757931
2.608000 -1678297 -1020589 1473225 -839421 -1348657 227866 134464 -1580860
2.624000 1292943 920810 -894037 206458 -675782 -800866 479998 -1339917
2.640000 -454080 466528 461934 1566795 -479605 1121741 298078 -780764
2.656000 -1098026 -539517 -668089 -498178 -388816 -1170415 925575 -2784695
2.672000 147192 -526123 -741341 872804 260073 1060637 -1141758 -727157
2.688000 144017 -1649687 393116 -286240 -145976 -728776 -435082 -384144
2.704000 456849 879885 -476507 -116074 55042 659445 -722570 -568238
2.720000 -159813 -1113868 328367 130597 -476624 90329 616868 908103
2.736000 -93403 -911098 889203 -1063566 -1944079 1651433 365657 1232808
2.752000 789827 93100 -1282374 430458 183361 -32353 425720 -382431
2.768000 -194310 -1372505 576184 140360 1231923 561638 39884 -1288408
2.784000 -1950752 788071 641539 -860558 648626 -1021462 -116197 1123765
2.800000 1660787 -668595 -61674 -187496 570764 1511761 -751161 -1338486
2.816000 1048441 -355511 -854664 -1489955 1513894 337966 362566 1552468
2.832000 870210 582436 -1608388 -301035 -1009466 -215229 -863670 1345626
2.848000 -1497602 1162795 -146290 -699377 1276031 667284 -557092 -93644
2.864000 948528 973009 1086671 -711529 -223923 1133890 347408 -953399
2.880000 360093 1139316 -1644707 615683 27551 172827 -1232758 -133597
2.896000 104164 68987 836752 901591 -1085746 82758 868339 1187271
2.912000 991305 -1304022 1702829 -395628 426720 1601663 -260365 -495798
2.928000 -1514472 -395371 644606 8233 696346 -1605908 428305 978014
2.944000 -96844 599035 -1725989 555844 -498946 -81453 -1335119 350861
2.960000 1017109 -1470758 -1146833 -884518 9276 -47048 -368491 -192464
2.976000 91454 -1137610 -266375 -161396 60956 -736941 -326515 -326102
2.992000 392505 560064 418130 779156 -505194 -21423 -160714 -350676
3.008000 660081 -487267 297096 -2372275 404158 -85722 -587608 -888541
3.024000 -109568 -432619 -220342 707261 992452 -2139934 -261222 -617497
3.040000 -1121796 -111978 -634235 1469826 -1706585 -441998 1162543 -70040
3.056000 -1597000 -750857 982656 1121616 -30352 -17669 -382905 989791
3.072000 -677037 -1008025 -1147008 -575581 50647 -391196 -1010237 2263853
3.088000 890909 -224132 -893917 461754 -101680 -957783 -83971 -319000
3.104000 -320628 106339 -605507 -355787 -573768 227481 -665039 -1604806
3.120000 -353716 -1956941 809780 470102 1735212 858707 1409682 -57003
3.136000 -1714404 643104 2743941 -1688194 501048 -444305 1152969 -113296
3.152000 -1547156 -54470 467654 -581869 -467772 362446 1386397 315277
3.168000 224160 -246479 -49891 1344581 -344885 991292 354181 185542
3.184000 -435733 20156 456214 471255 423915 486373 19441 -1668955
3.200000 -212009 -178218 5913 765277 -778195 -136780 1947147 -320351
3.216000 -268797 681130 1538970 -1584213 -496401 -623076 101689 -195173
3.232000 -205521 283421 272703 950220 1262148 180958 616876 1068764
3.248000 282076 678065 -558891 21608 336462 1406629 134757 -1607372
3.264000 -551029 -1074390 37214 -314634 685013 1091027 93939 1396732
3.280000 1091681 509633 1553042 -1022445 -966615 -159317 -181850 825281
3.296000 1021927 411269 839911 -233643 199430 -15596 618842 -406569
3.312000 225609 1044571 -189328 165948 124234 -572041 928859 -1393875
3.328000 -56245 609678 -108721 427229 -732307 206537 1440385 944499
3.344000 -1328607 475216 152052 -804291 -272699 137210 347164 477994
3.360000 -1156192 -528651 -3086902 860832 -1289886 1147905 683665 1025518
3.376000 -142635 -443604 718324 399807 -520260 923451 1443532 1879394
3.392000 487062 110378 171611 472983 -399597 -484499 161866 -539476
3.408000 -331965 5476 258549 -406568 503881 602059 -411481 -928893
3.424000 1446067 97323 194407 -74819 -525599 1003597 791016 629972
3.440000 -475895 -279373 -387497 -185876 -780072 -1467625 -128531 17996
3.456000 -923992 832271 205377 -292014 35684 1773941 -811065 -1179217
3.472000 1096630 -227477 104706 550867 931316 1125309 302474 -832254
3.488000 -674790 977019 925100 931237 586438 1250342 -551587 89661
3.504000 779091 -448494 -406833 268126 -1189133 -1220688 431735 -243720
3.520000 1763140 1324426 -1467490 -319109 564885 -1096090 -1374483 1319256
3.536000 481415 73395 -946923 1094716 -773971 245736 94288 -151844
3.552000 1993031 -871474 -364043 -1459499 -1592676 -1444859 861264 38494
3.568000 -1215871 -1527108 -728359 -638318 395126 -80837 -334781 -1072836
3.584000 -1167579 1296416 -515645 -523649 520950 836463 -1091232 59912
3.600000 -1111432 780374 1408393 1866754 1232418 484190 -704837 813950
3.616000 252213 -967016 2291392 294835 -641115 405466 -986894 -1225222
3.632000 2087400 -871251 -112874 693009 826600 578288 -297989 302495
3.648000 1104941 -27277 355706 844869 -223266 -1265741 -974015 748609
3.664000 -278856 135604 -514222 961073 -418868 -841088 -732234 -36410
3.680000 -83226 137343 -351387 -486752 609223 -1837451 579830 180109
3.696000 322037 546167 -1516014 1487355 363021 -466536 -624798 1246086
3.712000 410439 -50610 910750 740268 169376 -1246880 -1590948 684546
3.728000 -122258 -362124 1550006 -264520 1181494 -13218 -556159 -482663
3.744000 250827 224784 -668901 -1128243 -156774 2006221 728551 -530600
3.760000 -97457 505636 1285832 388928 921641 -717883 -7472 -613197
3.776000 1391089 -133122 1052248 224076 -468980 1298839 -876936 729760
3.792000 785961 1350513 813295 1023239 33232 764413 766307 1063709
3.808000 195143 -332107 -1071616 503175 31773 114448 -765333 856415
3.824000 -997111 -1055705 666569 73331 739715 -220372 855507 179023
3.840000 -996801 291370 334600 892036 -339178 346672 -785509 -2227408
3.856000 314757 1528648 -571126 -1917408 908556 662251 341907 -1211215
3.872000 -966265 21275 50020 -121733 150076 -1222990 368663 -230198
3.888000 1566576 629536 -911418 496483 -694540 -782311 -808091 413618
3.904000 1090079 -691827 438981 -954938 -236796 -349589 239164 280293
3.920000 -894597 -711763 -637539 -561119 266857 -8476 -290643 -90054
3.936000 -1235612 121130 1487241 320997 -303298 23907 -330217 118173
3.952000 319001 31326 -767878 373450 489058 868212 -1119042 -770551
3.968000 1402057 -365937 537852 -252998 2273589 -639243 -732770 1089747
3.984000 -225423 2077197 550252 267865 -467157 245654 67262 1502690
4.000000 -241385 -22681 237919 729812 -564283 844295 734484 500447
4.016000 26019 435748 1341720 529635 1054082 436502 -960860 561559
4.032000 -710526 -556041 -379642 -313775 -1231764 -855196 -468260 302437
4.048000 650030 -1351373 -195045 -625966 164367 -953961 201487 -214356
4.064000 -650103 -114849 1239655 -498165 143817 -14726 1490932 -620647
4.080000 232599 -1345753 1434815 -957350 1697492 -961410 223276 3280
##END NTUPLES= NMR FID
##END=
