##TITLE= Ethanol in DMSO-d6, 21.7 MHz, LW 21.70 Hz = 1.000 ppm
##JCAMP-DX= 5.01
##DATA TYPE= NMR FID
##DATA CLASS= NTUPLES
##ORIGIN= DIY-NMR Model 3 (simulated)
##OWNER= NMR3 project
##LONGDATE= 2026-09-04
##SPECTROMETER/DATA SYSTEM= DIY-NMR Model 3 / synthetic
##.OBSERVE FREQUENCY= 21.70000000
##.OBSERVE NUCLEUS= ^1H
##.ACQUISITION MODE= SIMULTANEOUS
##.AVERAGES= 2000
##.DIGITISER RES= 20
##.ZERO FILL= 0
##.SOLVENT NAME= DMSO-D6
##SAMPLE DESCRIPTION= synthetic, common time-domain noise, LW 21.70 Hz
##$BF1= 21.70000000
##$SFO1= 21.70000000
##$SF= 21.70000000
##$O1= 0.0000
##$SW_h= 500.0000
##$SW= 23.041475
##$TD= 4096
##$NUC1= <1H>
##$AQ_mod= 3
##$DIGMOD= 0
##$DSPFVS= 0
##$DECIM= 1
##$GRPDLY= 0
##$NS= 2000
##$TE= 318.0
##$PULPROG= <zg>
##$BYTORDA= 0
##NTUPLES= NMR FID
##VAR_NAME= TIME, SPECTRUM/REAL, SPECTRUM/IMAG, PAGE NUMBER
##SYMBOL= X, R, I, N
##VAR_TYPE= INDEPENDENT, DEPENDENT, DEPENDENT, PAGE
##VAR_FORM= AFFN, AFFN, AFFN, AFFN
##VAR_DIM= 2048, 2048, 2048, 2
##UNITS= SECONDS, ARBITRARY UNITS, ARBITRARY UNITS, 
##FIRST= 0, 6.0076238, 0.00921151, 1
##LAST= 4.09400000, -0.014261522, -0.0068466899, 2
##MIN= 0, -0.76993243, -0.34112449, 1
##MAX= 4.09400000, 6.0076238, 3.1155276, 2
##FACTOR= 1, 2.238014254e-08, 2.238014254e-08, 1
##PAGE= N=1
##DATA TABLE= (X++(R..R)), XYDATA
0.000000 268435456 168999239 36322487 -21556885 -1030159 27407940 21933374 -5878670
0.016000 -28923363 -34402481 -32162773 -30400760 -23973948 -10264794 -643595 1521498
0.032000 -1286302 -4690785 -322232 4290778 7283483 2931913 114271 27891
0.048000 2057519 2098388 49627 -1042975 -402541 255384 1309923 -1112177
0.064000 -1739275 380773 -611965 -1623807 1071369 -2068851 -360772 -314692
0.080000 1297896 -44044 927320 336129 -245330 122933 -205616 679596
0.096000 424463 1254804 135043 -725725 567791 -1363521 1261566 -606967
0.112000 -502436 -993921 -539720 2800687 1208279 -959870 -815775 686065
0.128000 -1727216 -733730 -362960 355723 856235 1809412 334324 -274226
0.144000 -1383553 46677 1344566 1073601 -364630 -214590 2840865 -654507
0.160000 2516501 60570 -2815711 -807507 -257647 200867 -439714 -1176725
0.176000 693362 -1407240 -1540078 -144481 532353 -593034 253199 -1604815
0.192000 -314777 -308919 1646898 1358955 -273753 -1093168 -1039336 1502302
0.208000 1255433 -450741 892556 -1856828 -195136 15964 -899294 1505326
0.224000 -1667777 448292 369278 -163065 -523373 1737582 823620 -1103173
0.240000 -1157358 6503 635902 -607660 -613409 -448556 420643 647396
0.256000 17142 265665 203231 158093 282957 -26161 211147 -1430008
0.272000 -767766 -927074 -310740 823370 -341934 568114 -491863 -2267814
0.288000 706620 496603 -570674 400671 25672 -1165533 482743 -1442714
0.304000 1114690 -428116 1096663 -96738 863851 1148872 -1193234 -2274904
0.320000 666067 -337459 -214179 178323 1116617 96649 -487066 6423
0.336000 -2944 -236374 380703 2002964 -595133 -12965 928850 -781338
0.352000 2845087 -313220 -172287 -41128 -334216 745462 -793841 -1404257
0.368000 1124407 -180640 -43131 -1032169 -1662207 11599 -1007164 356919
0.384000 -719651 1382898 -912685 106772 112837 -1087195 469868 2421061
0.400000 -1448264 -2026736 -442743 793188 105426 319708 70028 -210200
0.416000 524923 653128 -506633 -944080 -1530042 1296527 613230 -447948
0.432000 257854 1962534 925450 442948 -1323459 470086 120129 26185
0.448000 -753478 1064957 436229 162444 869860 151774 -189472 85603
0.464000 464238 1118505 -1130390 -579543 -65638 492148 -1846789 -1955701
0.480000 247046 -581946 237081 777735 532033 676485 -248342 1543377
0.496000 -30058 979921 305212 -664331 149442 124923 -1987248 1282379
0.512000 26012 564760 -448468 -50908 -445281 -515192 567703 -1110717
0.528000 56794 512640 -820425 766929 -665935 -1736240 -195002 43422
0.544000 454872 27628 -1360673 -566382 366310 -567676 -139575 -966241
0.560000 -734793 -316214 252016 709656 -960265 2439481 1003164 399370
0.576000 -551785 -666212 1458190 -557320 750179 -467353 141729 787142
0.592000 1059620 1124756 892655 -106750 -938494 27367 913198 774564
0.608000 517191 56390 278048 841077 -633555 -214861 702644 1308334
0.624000 725998 1461598 -1633683 1508193 -1018902 -430176 -76152 -295154
0.640000 -657927 -927188 336314 -268848 548738 366199 -217898 -1447538
0.656000 739501 -38746 -941886 779561 225394 156639 -372562 -2133249
0.672000 724244 309982 -683460 1152715 -473277 437200 -357663 -1649891
0.688000 333647 119876 1078499 2143765 2247335 574765 -496610 -1268390
0.704000 -64311 324039 228133 -1189202 -138846 -187981 -217998 1243501
0.720000 -927635 -1434837 425508 692370 604265 637264 -1011475 1513079
0.736000 -2425907 308896 304945 1721337 -521824 262602 2810738 -1187801
0.752000 132643 -648705 -1529723 -826591 -148766 211617 -980650 659616
0.768000 978227 -777116 184248 635824 -408552 -816344 -428431 1478192
0.784000 -1346188 -1057172 157744 -398439 1050793 937969 -893937 731765
0.800000 -2121323 -393545 -1751294 1370465 -736013 1585730 -710548 858786
0.816000 -772675 223107 303287 538455 -2166537 -558526 -87233 1306916
0.832000 -2042485 164130 -467579 243871 1152591 -61347 -392802 275463
0.848000 2014020 -635225 97914 -1557817 1718520 -980084 -970555 -206884
0.864000 464002 206414 -685462 -1311902 736464 795634 1210084 1742881
0.880000 1104594 -2151806 -1206988 247155 327260 -34967 717553 570100
0.896000 234903 -142524 146393 441739 -129497 -1642502 -606094 -905021
0.912000 454211 1879974 -1539527 1330073 -95043 -1504526 -1470030 689880
0.928000 -229565 129055 -410622 906553 -368084 -839393 1241631 -973639
0.944000 298888 933662 470191 -970626 978632 -258443 -1033911 -1799761
0.960000 -905114 -1556564 -591248 627333 1627118 -829287 -189063 -1181551
0.976000 170388 320878 1882569 -1263872 123982 233542 333484 489779
0.992000 814452 -1517400 -259181 1057800 -570402 -894605 -345384 301963
1.008000 -969038 875658 -720064 852501 636892 1085767 -288545 55709
1.024000 -1012030 52101 -1259418 856237 842250 -1139397 -1163106 748401
1.040000 -465634 -63616 -345211 -391029 -659561 407505 -64020 599542
1.056000 -835494 634441 -496439 555669 1173322 -1530080 308724 -78689
1.072000 -107642 35981 -1577072 1109088 -359477 1372103 -48820 -76738
1.088000 721073 75280 363110 130203 -501333 335661 -317019 166248
1.104000 641450 62046 -898901 578472 261002 -1744833 637686 -871921
1.120000 703276 1026402 -1771438 120376 1479428 155010 -499061 280508
1.136000 -1135389 -605789 -755031 -1594533 -38489 1618486 -512028 -554894
1.152000 750149 263602 1043242 486361 308372 -1266490 513523 1179312
1.168000 250589 -665383 269892 -912306 963391 995316 157201 1041296
1.184000 -1008922 1605797 -199278 677972 130194 801167 759798 258488
1.200000 387564 25126 -921816 528751 276968 24848 1394611 147412
1.216000 379373 721495 -1504417 -1627895 -442813 -861654 623635 194821
1.232000 202322 158434 365131 532966 456067 -48570 945144 1658835
1.248000 1118314 304932 1028826 -486951 841459 -1113733 -918332 -1279545
1.264000 -1393847 222033 412414 -2575844 -608004 644946 1133238 1266399
1.280000 -743171 324857 176162 -1025860 -593684 -447504 466717 -247775
1.296000 -146703 -1228112 514990 -143373 -557349 1196124 114129 2073218
1.312000 845268 896137 348170 -187472 -280739 -395983 546383 -1341257
1.328000 516646 -1191661 18150 -332144 -29054 787603 -17811 354472
1.344000 588253 1866499 -2003008 -1885752 -248595 -1043073 1713789 1075700
1.360000 260895 307737 -1899712 687450 104068 -1138345 996298 1517056
1.376000 472957 1810059 -1264265 352855 176808 191771 -931815 63917
1.392000 316663 -2065201 1026242 -284041 550929 528581 -55135 -975234
1.408000 -1499187 468859 -553235 855784 -107235 806234 586759 1231682
1.424000 -36679 520105 151648 -268678 -199257 -669690 533222 -466603
1.440000 -1416449 -1997426 1215842 -922615 -125644 -808509 -461594 699025
1.456000 569432 165550 214607 -569408 -820587 -991661 127462 864457
1.472000 -735429 -280867 1420965 2155220 -1060788 -1127266 -173591 1864580
1.488000 167137 -462908 -1489703 68594 -273096 132775 -539505 -1056921
1.504000 -144203 111523 87587 -195801 -415302 911322 -239808 613643
1.520000 396601 1669379 -926869 897099 743598 -1279734 105470 -775264
1.536000 689598 706747 -1174793 2303227 -87860 321399 -447778 665878
1.552000 -229062 -290316 634538 -319319 611371 -435027 221399 1077308
1.568000 281071 -700024 316666 -307287 -60914 -249074 -1419623 -937897
1.584000 -124842 -195570 -55132 1543918 662150 -1577513 359856 26696
1.600000 -334704 -841558 -954557 106408 -504431 -949091 1101000 244695
1.616000 -7373 -1434761 1057347 -420245 599390 44820 -1331736 -998677
1.632000 -1666245 -124046 -224516 -98512 1353010 757617 -355596 -622164
1.648000 1208192 -180501 111194 1679578 -1189731 581036 -709828 675029
1.664000 293024 -410709 -249405 444412 -320928 -288796 -861181 -1176749
1.680000 948168 -645893 1444947 -872257 152204 -1690368 322561 1558206
1.696000 1481942 -1186212 -572601 1019828 -701006 953866 690527 -1379894
1.712000 -191473 -189134 830832 -1053559 -656858 -1154577 -1162569 82144
1.728000 787006 1645954 -282226 465989 -1299630 539543 1341769 -592409
1.744000 248216 -616706 -1048572 147147 429466 -376958 -1397747 -804448
1.760000 705510 -414168 1031820 152398 982610 -151406 -1162561 52025
1.776000 -93381 -952376 780591 409107 -463787 -511587 -569557 990660
1.792000 1034386 -699848 528645 1079464 -57973 834465 -213561 929964
1.808000 -465030 -266919 1141126 -798688 833837 375468 -486988 -826337
1.824000 -322418 -1354711 -2370442 202719 552146 -16400 1764719 1944801
1.840000 552573 -400032 -343683 696368 110068 268566 1031432 477201
1.856000 -732882 378471 -1225885 1699803 701048 1068646 83103 806002
1.872000 -1098367 375900 -1695101 11100 543360 -1541883 303953 442294
1.888000 -670747 -898371 270472 -1099543 488591 -580356 554404 1547316
1.904000 570586 -79608 788393 1515747 -714894 365933 -421217 229196
1.920000 -1512699 586043 -93643 467991 -857475 107295 425216 -841350
1.936000 -100613 -890948 42065 -1323514 -307384 72768 -209246 371191
1.952000 -526431 323048 144959 991759 -150201 215907 63440 -307501
1.968000 286811 -1904969 -442676 -165192 -1757326 -767437 -218882 -538930
1.984000 142494 1082956 1310719 -408726 446674 -1061496 -40634 -228055
2.000000 -1150221 220988 482613 128088 590814 462144 628987 868122
2.016000 791761 -1410275 1403950 1127269 -489192 -26531 -131899 38247
2.032000 -682839 571715 -199098 -1358028 666866 -620 -1931054 60624
2.048000 -1053556 427984 -186270 -2087368 556090 -182939 -203016 -1552643
2.064000 -69339 124570 2126781 -548317 115086 -83771 -365315 -1373582
2.080000 257620 406641 -1078518 71629 1184713 -488308 256138 1958672
2.096000 2329228 -59162 -287132 419706 991677 -485380 -877707 970993
2.112000 889235 -622761 -63094 363591 955492 834597 183924 1128375
2.128000 -1447947 1257647 -467470 -1465000 -398231 46491 -1015273 1171099
2.144000 -82872 -1671329 -904627 907211 61864 695592 199200 894294
2.160000 669738 -1153772 -698101 -1765426 227703 929924 593137 -2095554
2.176000 -616960 -1620581 301663 -1195821 -1163842 -361287 1632912 494842
2.192000 288369 -839636 -695775 480400 -517410 586663 78159 1475219
2.208000 870256 427533 -817854 -807421 768867 514516 -275814 973172
2.224000 -1368534 -664919 125273 -150336 -1378203 1100821 1935832 1548798
2.240000 819441 168594 24802 -121507 575190 743094 -61794 1136102
2.256000 1128992 202454 46013 195293 87235 -456064 -390624 779339
2.272000 -892003 1009302 -270941 162848 619859 384125 -459003 -629159
2.288000 -809265 -969057 188319 -112583 932951 877268 1384925 -753554
2.304000 -525532 476509 512675 -1248247 1081694 770893 276936 232238
2.320000 -1840683 434099 -322321 579641 -280978 -1389577 1077432 -1093252
2.336000 232059 -123392 -492415 87758 -929822 1083864 -635460 -226745
2.352000 -256990 415616 -81375 41791 -422940 -980669 533330 308065
2.368000 160188 -347919 -833965 -1886597 1822015 819202 793726 362083
2.384000 511506 1140368 -683026 40946 -903417 -905436 1103597 434393
2.400000 682486 -370251 1265183 25145 -186078 -390919 483229 529796
2.416000 -166961 -214102 -7795 190958 994175 446358 -72489 307182
2.432000 69337 -128899 61337 -1206242 -617921 226461 249565 972495
2.448000 101142 570978 538282 -327841 244827 -984673 -913530 1600511
2.464000 277669 614613 -615759 -218653 540418 -611814 -40849 -307970
2.480000 965678 1420124 -1276217 209367 -556816 -171605 -1436166 394308
2.496000 -521197 647615 546616 1098805 -1149854 516869 909383 212979
2.512000 1204785 1325531 -899601 812609 401013 5581 -1412263 -129684
2.528000 228396 722873 -1320500 -338694 928023 -833051 -1013086 783697
2.544000 -766544 717643 -250716 -104466 -867807 -834227 -395890 -1856747
2.560000 535961 -640582 881556 -44954 694040 540137 -28678 -1065176
2.576000 481026 650770 -103474 1926157 966988 -375694 1142904 182367
2.592000 -865305 894886 -2213971 684698 -310522 253054 -243260 1635454
2.608000 443634 -127535 128794 -615947 413706 428020 -886776 -470290
2.624000 -645069 -1641642 1396692 489156 -583937 -231703 -148065 -33196
2.640000 214775 -900181 720614 752371 -815940 -94824 69605 -452681
2.656000 768205 -179782 571080 335859 -619165 127085 -283246 -708920
2.672000 945249 1339782 658848 -670654 866564 -99989 -462902 -481318
2.688000 506923 -620528 -437933 761153 -200889 2356698 -1575333 765590
2.704000 -1707168 329602 -567646 -649491 374233 -951272 -630194 -546737
2.720000 -46606 1217961 -984092 239212 -228589 -294526 -469023 -243421
2.736000 -717043 -1410475 305032 125377 -944043 1351639 1173462 874183
2.752000 -622808 1398655 515616 -696846 155492 -272925 677304 -1064698
2.768000 1731696 -705105 1446954 -142860 1484160 -381926 -1211875 -1801635
2.784000 448199 -486291 -603269 -2567185 -294219 -1154920 -469622 -1533021
2.800000 349612 402914 -1323839 -1085425 -1068473 1119577 1082407 4359
2.816000 584465 1413872 -495676 -948997 150233 1044220 1540727 737371
2.832000 1059650 485410 -136321 185297 -241473 1019032 -2190746 969664
2.848000 959092 1142129 560665 -381820 -894391 118714 -251037 -1468931
2.864000 596915 -30502 -1058967 -122508 2185754 -381063 -148898 440163
2.880000 -870575 -498259 483468 187875 -1433176 525953 -1249785 -676320
2.896000 -798307 -503617 116539 -545077 -327974 -331690 958435 -110302
2.912000 -589182 -1595654 -1261515 582076 -113440 -1391858 19881 689540
2.928000 -2063333 -1408475 245555 -564836 2045823 -752989 1385765 -291655
2.944000 -1794185 -388779 -463583 1039103 374291 218156 594272 -903964
2.960000 171151 -647352 962725 -663483 -253796 1408533 1411057 116864
2.976000 -74782 -1256463 -460548 1470319 786366 392106 -186357 1633939
2.992000 -1784821 -1104323 -523265 266819 -876930 -698431 717672 941655
3.008000 785017 232387 401761 644431 795380 -1224138 -432872 955575
3.024000 -1164088 -1804297 1377390 -707015 601156 -258477 66054 -2690457
3.040000 -796507 1390730 -909781 281845 -172316 620892 396469 -953868
3.056000 -345007 759830 327477 652910 54403 -725198 -1309687 972770
3.072000 1657416 -557109 778507 139953 933139 1096323 782533 -2021896
3.088000 -1451965 -316638 211751 902476 -1308782 277174 -379267 -267334
3.104000 151589 -953359 637973 -361771 417697 420780 -524393 -3011785
3.120000 457114 -524669 -27245 -1049726 -602502 -85965 853406 -969927
3.136000 -1017479 -848413 -747220 210469 489810 211676 -63368 103081
3.152000 -820934 -1051378 -899814 -1328371 185547 -520954 845644 365586
3.168000 -402856 130011 -1409161 -15713 -1650988 174029 -175992 1318301
3.184000 1411648 353790 1724702 -339310 42079 -244141 1288738 -108130
3.200000 1037296 670692 97691 885719 960086 -176061 -2500161 -334109
3.216000 1589983 138059 -1359004 2571182 455003 -492738 -1934906 -737992
3.232000 -168716 -94514 -588695 -456075 -307423 -26334 1522047 -751794
3.248000 -1884893 1653940 -314130 648035 1089913 -169867 645633 150184
3.264000 368647 -307433 -1212771 -230266 1137325 -972830 189362 440290
3.280000 -546021 1436945 -389727 812418 -112742 345058 35165 -969957
3.296000 -472347 2037035 -843858 -1214512 431937 -864785 454728 -950359
3.312000 -385386 915490 1787733 -156815 1225374 -440411 -256069 -242957
3.328000 798665 1430498 -1508149 106812 -465607 -1060475 -1263398 -2678757
3.344000 -107817 -148032 -177921 714691 87053 30780 -776502 964286
3.360000 -294897 416380 -706179 -1057854 -704609 1128742 -2244320 2003579
3.376000 846904 73381 -319178 -943935 -231221 27050 -552740 1384681
3.392000 1013114 -127527 486809 396459 807951 707229 -985143 278333
3.408000 -721909 -460509 -433196 -334135 187207 -1144770 -412941 -576059
3.424000 -6644 -18582 731238 -247093 -285275 154677 -1186007 47902
3.440000 2094301 1762629 -1248358 552317 -854036 323563 -355651 -922809
3.456000 1758558 62311 1245067 -1172992 -677610 944200 -311820 -605445
3.472000 -1170468 -326459 1122896 129987 -730732 64438 145181 476634
3.488000 276510 1757568 -1446161 -1381060 277354 -254130 582548 396780
3.504000 1352095 -608227 1047882 -730936 -2344573 -1407421 500523 -1938289
3.520000 295779 657648 799226 46582 461339 67715 286814 -933914
3.536000 9465 543719 166059 -39316 -12391 -399610 754502 -508787
3.552000 654699 14221 871319 992860 123032 894231 895906 -951319
3.568000 373241 -1333336 -202764 1258072 478691 445574 -1223043 -357951
3.584000 -537024 904449 123607 -1861375 224460 -394481 -1689943 2004052
3.600000 -1262714 -448550 -486850 -166364 -217339 -535183 -1097289 -162068
3.616000 -388691 1232096 725187 251149 -1645943 -1559390 917 -648868
3.632000 -291641 897033 -773152 1861454 635892 842853 -3099812 -949523
3.648000 -869935 -716474 -1655508 -1154376 1469669 -843697 1437044 562997
3.664000 992418 896562 1392333 830913 -227938 1856443 883620 -2470485
3.680000 -802119 264602 -907831 -1187132 334797 -284177 1315840 -532872
3.696000 1107323 2220251 678037 73549 -847101 539659 -1363369 301124
3.712000 293433 924322 -730767 1153207 1493761 779294 -154946 -170384
3.728000 -584786 521567 402174 -955534 619590 1807666 1280546 -902318
3.744000 -96979 -1079145 -1675095 -437298 178180 -137288 -1316927 485152
3.760000 -180269 -460292 180755 8272 163304 731976 -431668 -84446
3.776000 -886652 259559 216608 167613 6720 -358936 912817 816221
3.792000 -75244 -659926 969372 241213 1177053 53081 322580 -975862
3.808000 141793 -725201 1683321 -625826 147554 -86508 1298874 401481
3.824000 1426053 -2212158 -735034 1460464 439893 359710 728732 89515
3.840000 68592 1374540 1075752 -1578141 826545 -292616 -1057429 -2108483
3.856000 219755 475062 -1305272 1030585 -203807 -234145 2437292 626709
3.872000 165362 548517 -548456 415563 543336 827968 308520 -213092
3.888000 372609 552638 194301 194758 623083 -847319 -598155 -613367
3.904000 -20920 1005228 -60556 1551310 -530715 -150982 -846721 659898
3.920000 -576916 772742 1237959 229082 -151053 -599249 -541888 716398
3.936000 -1180436 1014550 69467 672430 442181 1815703 21996 75013
3.952000 90045 863009 -261211 -1057837 88114 772805 566903 1084207
3.968000 -1633499 -1037242 1247213 775842 138704 237583 -1038318 -1429077
3.984000 -472770 88634 114819 1559482 1991493 243953 -699696 -1773904
4.000000 -126904 -4164 -923739 -568145 266492 334049 -459260 451302
4.016000 -944891 16284 298141 907842 -617378 126080 283809 216859
4.032000 2645785 -7198 -825984 -96347 125969 525309 -89028 93676
4.048000 -1400107 69094 -435066 -22729 1327889 -435813 -309831 358111
4.064000 452850 -261755 907350 886298 -265180 116230 -54592 462293
4.080000 89674 256117 295715 -1709162 833314 -22175 113734 -637240
##PAGE= N=2
##DATA TABLE= (X++(I..I)), XYDATA
0.000000 411593 132797990 139209463 67429191 17273877 22362298 52067270 60031657
0.016000 43117233 23024689 6562349 -3017392 -13336698 -15242284 -11914287 -3521532
0.032000 -2806394 -6160357 -8056542 -6105985 -36014 1789737 2988634 -920506
0.048000 54154 1140851 -711348 286111 -633336 1211269 -929842 1323993
0.064000 -1025102 -227575 -610025 -515347 370968 2501399 -670265 -817597
0.080000 -208777 1434797 -269956 -277862 852755 1403303 -756593 1113440
0.096000 -404392 108069 -646711 -994675 138819 321157 449847 475787
0.112000 668388 799132 1497871 -873795 -197286 -1039224 141384 864662
0.128000 -164182 1101404 -1027057 393013 820252 -1288848 -1974486 343297
0.144000 -1490343 70325 376513 37211 483135 -804013 -566590 700098
0.160000 -1328481 394312 1463711 1833632 243538 684697 758479 -609209
0.176000 892071 320643 -114187 -521993 1032006 228904 -1500787 -848890
0.192000 -714553 -648824 -750801 384300 413025 633681 646636 -1763019
0.208000 1137683 678281 531112 703116 600674 -1150649 499635 379457
0.224000 301720 80106 860921 239732 -459793 1283879 259191 989731
0.240000 -1231266 164971 81430 422122 -109871 1080923 -669273 -109369
0.256000 -557165 -1364804 -471666 -476858 -782923 -1579261 172476 839347
0.272000 -471414 -84009 -85887 -1048944 -418543 1577238 -1087733 -509949
0.288000 428451 150656 114041 486811 -1052319 350688 -1220566 -576684
0.304000 -912265 -968675 -261403 689216 568925 351201 -137742 -1927660
0.320000 -238553 -255265 1405703 655787 1298516 732661 -1504555 -510352
0.336000 -556298 788121 742510 -949196 -138532 153222 635305 499340
0.352000 -138453 1601203 -134040 -286009 -666065 784415 1558084 892923
0.368000 1085985 424667 845257 102674 -1335985 -199634 1198500 559385
0.384000 784419 827490 508082 315653 -257069 -732902 -647747 -852446
0.400000 -393353 463073 650560 -184067 1656786 1643227 523739 870592
0.416000 -1223690 -1530842 -750870 881111 -134203 404443 1840246 -356693
0.432000 -284988 -819267 -34770 -440055 -166054 -463340 -231842 867830
0.448000 321546 -675384 -845864 -1225495 796104 -1056088 -408206 943155
0.464000 279377 555855 -139962 472879 810759 287859 368236 116576
0.480000 -478058 1133369 -7790 832628 260413 741561 1038080 482006
0.496000 362273 -1044131 -396378 -246278 959129 -809299 -36860 -275941
0.512000 -2059775 94296 551120 346632 603503 376011 1647655 368338
0.528000 112282 610030 614276 1682019 -1677200 534841 286718 43012
0.544000 523760 523416 667330 -956581 -765800 305365 -112544 145040
0.560000 -618726 -994932 1506529 -216594 -284273 374581 442508 -1054646
0.576000 980096 688767 -1079174 241996 -187312 397123 1031478 376486
0.592000 -804379 -1107415 -924596 -104049 287952 405589 -1317010 1159451
0.608000 466338 383585 388302 -632222 60443 -627799 -179990 -918571
0.624000 44624 -182611 563202 1496240 -687541 195203 1575950 -535846
0.640000 606078 -580195 240902 -7738 -369957 384467 95605 -1220650
0.656000 99353 359129 990678 3213825 1749173 -436712 -631404 -664542
0.672000 -1455709 -46582 2659 295936 -1342633 590928 719709 -184780
0.688000 -883296 1395360 1206425 -118151 -23672 -422801 427759 481967
0.704000 -424878 -293452 177905 256625 -539356 435086 611746 -2060748
0.720000 -1180405 272099 818870 -1358503 -597775 -1359360 356696 1212263
0.736000 513664 1711458 1410591 -269308 1578808 -3005735 1269441 766725
0.752000 -1705435 -2276184 -959130 276050 -122380 516845 -324727 -643643
0.768000 -592563 -442117 -709388 994445 -850101 -962851 70139 -295078
0.784000 -158924 421557 1258264 384041 83824 7481 293726 -1585159
0.800000 16157 -441346 588318 -214931 -1543983 238682 -804092 -207403
0.816000 -510348 386746 239167 1945521 813161 -119563 -535132 -1212546
0.832000 -767694 -287978 -498812 194815 42868 -716374 351780 44663
0.848000 329198 -612563 962188 -368221 -528214 267911 797244 -937760
0.864000 755710 294085 494610 -1456591 -495995 1562281 -888618 627846
0.880000 2055315 1324412 1455833 2212672 868928 1006411 -318289 -740922
0.896000 1275630 -38676 1005738 -155704 -957755 485244 734719 -434548
0.912000 -807800 1026149 39298 -475311 990658 739203 -1715397 -1242642
0.928000 -1033019 276690 -193977 554990 -869482 -988190 1037564 -1682860
0.944000 -805611 2144900 428125 -916348 848150 47514 -856270 323769
0.960000 -933140 1287709 874756 116494 -39071 429370 -842690 1287943
0.976000 149961 141576 -13800 -527977 785034 -520407 1354120 -824602
0.992000 -158512 615374 1021554 186014 -960122 488143 -1117227 611200
1.008000 -230504 627928 518219 1143197 -297656 180836 384893 -1512325
1.024000 -169804 -594113 775515 255984 919070 288085 -490991 -538364
1.040000 1866232 688764 -2537821 -302695 -1007369 1323600 2015850 -202977
1.056000 1664071 -328640 -559820 -612303 899969 25888 176738 217079
1.072000 -191870 1338416 -665360 -152419 173456 -1319246 882923 -503904
1.088000 -1655313 -826860 -495778 174762 291248 -74363 53670 244866
1.104000 -1214499 1052460 -457657 663359 -1094937 -1355589 272337 -474031
1.120000 82722 -473660 -383925 -125309 -1455623 -761434 -682554 -242813
1.136000 -1387169 1164138 -645068 279445 403509 -750515 1738669 -472207
1.152000 -1237402 362845 680512 -281468 -645356 -567473 445777 -1516602
1.168000 -625595 -635827 -1072532 632696 -1974623 373162 -410586 1264934
1.184000 -843871 495579 -296713 578788 -553089 -230613 1410510 436990
1.200000 575370 -755836 81019 -2662630 -1920622 -885277 -316729 605786
1.216000 -954819 -910706 -1310049 -496116 -1025520 -1200896 479754 -117024
1.232000 963523 -1534874 619222 119816 -449183 383094 456857 -172792
1.248000 669144 1744713 710360 1262437 648167 533310 -1394012 -330308
1.264000 -176682 -130362 51494 -1507984 -1389224 2272487 -114700 542160
1.280000 -635413 -719442 -693142 1003960 -359669 952114 -1843158 -58958
1.296000 -741992 478041 675077 -456528 81283 -231831 -213177 336184
1.312000 60083 529876 152482 701001 -248084 -1102036 830630 -107822
1.328000 -102769 542404 6482 397167 -1657372 842252 -308080 369141
1.344000 -487180 -485819 585696 421548 376775 996581 -341768 -351854
1.360000 -296812 400695 1807293 -326994 -748498 831404 -77920 -393401
1.376000 -1633210 -822377 99959 902250 517327 1253715 76250 383870
1.392000 23342 540989 294799 -205406 -615795 -499018 -159342 62890
1.408000 1454913 -435054 517383 -85069 -307930 1668454 -555469 -801070
1.424000 906283 1582873 110610 -19647 -988729 -158353 -521373 -351011
1.440000 621997 -692083 1916840 538080 -554523 -1008210 -678580 -345506
1.456000 -187478 366334 609942 -32724 108230 1675285 1174993 380046
1.472000 -558870 -590185 -390384 351685 -457390 -213532 151505 -1490263
1.488000 1484011 -866265 -200088 -1762639 -673362 401884 389305 1075544
1.504000 491874 1770918 -232533 573844 -485212 -231232 -2070533 -357737
1.520000 1638358 -350950 771707 -118613 -644561 -573376 -770637 -229620
1.536000 -489275 -1438641 222690 648014 -1817912 1255426 857750 507430
1.552000 605782 144499 -381941 -55590 -1263320 -446600 -630645 61338
1.568000 618293 1598527 65109 -146021 -103431 -324989 831692 -312983
1.584000 -611156 -113907 -383836 851912 -253312 -443101 -964069 255774
1.600000 414248 -251975 658588 -338093 331397 -292249 1347611 578388
1.616000 -729143 -937798 77325 -849007 1105601 201153 -465548 54726
1.632000 -578607 -1214246 987934 189512 61956 -523948 -792175 -1607963
1.648000 1388168 -15374 888227 499710 -447230 385856 -1132044 257093
1.664000 29317 -281199 1149502 -1298333 -1207870 -1122749 1003537 -1613065
1.680000 1617550 -1106602 191808 -426116 590537 1604374 -251105 929209
1.696000 320609 -124332 325224 217543 -712219 183949 335070 888052
1.712000 123509 -1884669 -282413 -181033 -1743403 388644 -398186 -200087
1.728000 183974 1560504 -259801 1151138 702550 -1741171 733145 223813
1.744000 799550 607763 593845 957789 78136 55238 -283574 943826
1.760000 -823185 686038 -1520392 106038 -478297 -882417 -954198 391725
1.776000 -2698283 -442426 -798875 -58129 -701483 329435 -1039797 552641
1.792000 -1263481 1055258 -933860 551476 895465 751427 -636389 -643351
1.808000 -44144 1140138 -335206 755321 -800398 -683158 663282 253215
1.824000 -556840 735213 -870158 -892146 -440505 -2141917 576798 403857
1.840000 -611639 1064062 751672 -96926 -299762 502923 168030 -657246
1.856000 359006 637560 982746 696512 396313 239777 1492541 63348
1.872000 -171424 32294 321242 -94730 -1656311 -1577210 1564916 -144220
1.888000 949524 768969 91110 -1438781 -463745 1117021 248573 -46602
1.904000 555328 -1398367 -1653017 -563594 201407 173279 685526 962776
1.920000 -388833 1187104 496303 1269788 949015 935100 86881 -1619768
1.936000 598047 408827 -740637 -282352 -262208 -100460 -512430 -1673223
1.952000 -1290605 1165134 447060 1163224 -1015280 -495941 609329 -255129
1.968000 471 74979 -561791 -1117114 673219 -865697 -79735 -259447
1.984000 -1520605 -407737 363486 -668805 840381 -1141071 918744 1048672
2.000000 1462023 810237 546137 -457472 -77780 -147688 673157 -323224
2.016000 266821 -11402 -1989278 437097 115579 -109031 -1062769 -941083
2.032000 -158183 728629 762969 234584 -1637127 -1610686 1105152 -191914
2.048000 -2321960 1838473 1589251 521715 -1973134 -500361 -527675 945768
2.064000 -791436 -653866 -359390 431832 -855551 689051 -23681 -889055
2.080000 -1517514 -421059 1924278 911337 -753713 1004384 872311 -1640521
2.096000 176654 -195639 -122172 509159 -17403 404931 -2935815 -556749
2.112000 -215284 -672827 1026144 -400776 -742853 373813 -664792 871179
2.128000 -86049 1431953 1004977 1571537 779274 -685853 225807 202288
2.144000 -463919 -1281637 -27025 909200 1795956 695741 -499497 -164487
2.160000 887788 -197568 -44429 -224055 -266610 -1450339 -673946 -951830
2.176000 -120120 589184 939408 -641944 -230657 507363 257628 -272069
2.192000 506837 490222 469814 -581452 675649 334974 -677373 568686
2.208000 73133 -1292186 -621106 -122898 -718813 -37343 157499 -1116459
2.224000 -383025 -717705 -124114 -672087 -319544 242139 825087 -1115586
2.240000 -1189514 -213568 -710553 156848 1515572 -109795 -453069 -111550
2.256000 -153032 314393 -191604 -175657 1483383 -1384924 1040366 439807
2.272000 297435 -158513 -111023 -1109448 255204 -853514 343434 -403722
2.288000 143253 -473216 -132830 1564631 214550 1906983 -119368 633269
2.304000 12412 -1536025 567732 -684206 -472000 -267203 961360 -1326873
2.320000 -684217 54766 -668540 441904 -316688 398527 630772 -806400
2.336000 -226511 -329284 775484 603475 154735 182331 -769707 -238362
2.352000 741766 237605 409679 -738495 27752 207792 -1730999 1248824
2.368000 -152227 -183285 269062 1214059 -977078 478878 -1059788 -671705
2.384000 -2138198 2108013 -1361019 -737570 -1199790 1104506 -116716 523553
2.400000 -1046337 -772160 -111322 475774 -243574 -547800 74029 1093140
2.416000 -98593 -207998 1479727 463442 -1298861 -34458 -1377879 359898
2.432000 -2180955 -864987 1004931 -633919 2538146 1206123 844772 -1307589
2.448000 764436 665933 318090 -307236 494823 -1116132 677667 -6937
2.464000 160760 336139 -939221 -440650 440591 -243630 -383658 928035
2.480000 -614429 -260400 627769 -344337 -1798745 1664671 1071866 885437
2.496000 348309 -375236 1939155 -37141 703747 899937 -412437 75992
2.512000 -1735314 433324 -130377 -1310864 -1225598 183179 1263148 1324683
2.528000 317084 1258885 -320359 133639 -1026053 -124763 -429331 -982585
2.544000 170634 469291 1862730 556184 -311055 978773 -855208 1105618
2.560000 -1738460 -558299 -10607 -611491 1090192 574469 -175069 -682045
2.576000 366805 1007634 695124 -85872 1610706 -641387 -339054 1144545
2.592000 492776 -372398 2102036 689697 176018 -505532 -341042 227706
2.608000 1144152 -1911548 550298 -789882 -357219 463334 1277994 83537
2.624000 -887977 411031 -366853 -679438 -509454 -11596 1947 465639
2.640000 350107 29808 65542 -902383 772905 1224372 -740559 -404019
2.656000 -213656 -471955 -859334 1374157 230689 -477872 202033 1581433
2.672000 -178662 -553944 -145522 513764 338085 -1347131 46613 -1114252
2.688000 -1171018 -448244 578316 991724 841585 -1315331 90393 -1077727
2.704000 -578255 767200 -293612 754404 83054 -321741 -749436 1826433
2.720000 2127791 -1249119 2151814 -1339238 -296513 1638967 -712665 101530
2.736000 -49183 -220149 930254 833099 -655284 -399591 530997 -357123
2.752000 97472 -17187 1576270 235211 430104 -689080 -725443 243208
2.768000 -71468 -152057 -196659 -1530164 -973600 -1032664 1266691 -1312332
2.784000 -478908 -137070 -336815 -63942 40805 833170 1387928 201713
2.800000 59878 -463903 161186 -605490 -216796 2539471 1727634 825177
2.816000 -90492 -673378 -451707 726424 841604 -162544 -2108292 -197174
2.832000 218107 -186440 495932 -2187727 220669 681551 -503630 -1949364
2.848000 284908 -1368509 502979 646721 258902 249176 -171772 930745
2.864000 -641219 227115 748609 -1143947 86475 -1097109 1212684 230752
2.880000 -415707 1270555 -411788 653397 1855687 -900033 50087 41257
2.896000 549382 90212 -194953 -387530 1167894 974123 2323139 454692
2.912000 919058 338683 377073 -479427 1669347 220936 -924581 7944
2.928000 1478968 -512122 -633053 -900183 1034483 335010 402975 113
2.944000 -442287 1929900 -293985 -854239 183102 845543 -1524892 -1186027
2.960000 -519173 133057 198690 141188 778083 -764232 -1033155 -92564
2.976000 -641891 -992893 -321696 -734192 -229158 1033501 -905613 -664205
2.992000 -441116 -1456153 -651569 184771 166808 -1237865 991374 516284
3.008000 177859 -482008 44621 -736601 376318 -1337984 -625936 -406002
3.024000 -103749 -2106939 -360451 -296792 -1048103 -476632 556288 289076
3.040000 1289485 230458 -382234 680865 -622048 -1040136 1159627 -245626
3.056000 -598383 968097 60213 -94958 -570145 -626909 1294150 1172763
3.072000 652387 135338 672899 -197274 -401570 757320 91510 -173464
3.088000 -374624 879535 572086 -593354 192694 -5854 -1138494 -286359
3.104000 -4612 1376240 273567 392809 -152064 638138 363111 269300
3.120000 -1174460 -942557 1503909 830623 24962 999669 -1145358 -1346484
3.136000 -848166 1666763 1082962 40909 -609428 667233 348540 -5574
3.152000 -161425 -606446 -51303 -83396 -509788 744653 -220868 -347640
3.168000 -6561 296229 -700602 111870 -2018932 -627858 -276861 514900
3.184000 540204 104097 2763875 1352071 1666053 909058 706349 -575409
3.200000 974075 1046593 -71473 1200866 484538 911270 2109694 259304
3.216000 985619 -312719 -368568 -192899 -1824248 295642 719012 -857684
3.232000 617223 1152893 374604 -31179 778791 474478 773838 644237
3.248000 -407155 61381 841096 407119 -253498 349989 -776090 -655897
3.264000 45420 -394431 999473 -1439725 -707220 -113242 381612 -10427
3.280000 1132379 -1716132 560853 -230983 511245 681125 2342912 980349
3.296000 1589433 603039 -1654861 1919403 433224 221405 165904 -965554
3.312000 -463576 458931 838665 747536 -1432309 545373 -451563 115527
3.328000 -357292 330007 1150270 143006 -68072 139386 403450 -829361
3.344000 962655 -223642 491957 -1975054 413893 208836 264064 229927
3.360000 2064459 -663229 752017 -401585 -1212270 495075 -685090 539493
3.376000 -1808875 -788454 935096 559644 -1030535 -134472 402335 1053012
3.392000 49737 -101194 602762 -1901928 119414 -462663 -817915 112860
3.408000 -392536 -674518 1498153 -697887 499391 159710 479744 -821359
3.424000 -412638 -335801 490692 412356 -813426 386049 217863 -431137
3.440000 -315384 499522 1007884 206510 606392 511892 1563311 -225383
3.456000 -799783 -119418 -606247 -1050316 -570423 -419901 492017 -172989
3.472000 -2209524 442994 887134 679899 -971947 36016 148883 -487710
3.488000 1490211 -42828 18037 -668082 675815 1201025 1044396 628359
3.504000 542990 -1339034 360380 1466850 2094348 -917903 298888 -615321
3.520000 745798 59558 175189 -443103 -1822046 -328651 922429 -269745
3.536000 1323197 991148 -247679 -31309 -1550091 329 124517 72718
3.552000 1811928 31157 5860 -93811 326895 700767 296314 1105239
3.568000 527399 -504553 1453325 -539949 394292 713751 -752223 647913
3.584000 -1401563 -1167495 186382 434531 195371 811451 1136992 -141856
3.600000 503962 499576 -1124911 1023418 1226754 232425 2091932 1054592
3.616000 2372535 -1904170 -1288451 556078 984240 -229114 -1011077 -243607
3.632000 1214291 -2050696 -342072 360923 1123529 -1471727 458459 -263109
3.648000 -855594 574379 -113290 -1576727 125628 -1061652 -1448571 -84571
3.664000 215493 422570 621223 285653 -123960 -1644656 1007757 -520462
3.680000 786697 -465364 -518339 659295 -931468 -754884 -1478795 -764716
3.696000 -840705 -32765 -1097531 -380948 2272508 89749 547548 447480
3.712000 1002869 -1228410 -119241 -36454 95733 133523 -75 -875567
3.728000 -395694 213911 -136794 -617868 -933618 203541 -1349790 853857
3.744000 -390488 -178395 -1087817 524077 879981 949780 971640 916122
3.760000 155000 462331 199303 -1503046 -517332 387265 -460098 517466
3.776000 574034 -199406 -1844007 -677014 -1106335 85440 -303059 1516642
3.792000 -546454 569227 -1197088 1475554 -514824 944108 69132 -129803
3.808000 222596 1127719 163775 -1154615 1779571 541503 -1380273 927094
3.824000 236452 -180435 -1477207 746296 -363462 -459740 389942 -652287
3.840000 -333882 373870 1097031 414126 1211619 -1444147 -108099 -1181862
3.856000 2036830 523863 198004 -22240 -226872 665381 107128 365593
3.872000 -1622046 191737 -834845 -730672 -911701 -252757 118533 1077581
3.888000 667025 315208 -1106711 -164736 -69070 491559 -545516 338008
3.904000 -562605 -532809 -641519 292289 1106865 -1131699 1518329 135559
3.920000 43709 2215953 -84955 -446819 -721424 -608146 616642 -1762297
3.936000 -905162 785007 -358192 973179 144257 1126125 476831 303414
3.952000 -242093 1095620 1265806 829738 804607 1473361 -1037782 22844
3.968000 -977127 1431065 -688708 -550372 1414855 4449 -1432412 -418234
3.984000 399351 840316 -45332 274685 -1120195 15759 -198983 -197041
4.000000 -109006 -15418 -950257 538151 437782 269705 450495 297381
4.016000 -832699 -1294399 -989993 1645571 247158 293641 328935 -367551
4.032000 886653 -463455 1109776 -973456 -215861 664562 -61348 -1082982
4.048000 1126930 49937 1547974 852867 -439097 -1177579 512859 -648822
4.064000 -1687482 -1083377 -155205 339761 1332723 823346 -1191457 81343
4.080000 -853179 -374317 -546265 143376 -734654 514524 -1293625 -305927
##END NTUPLES= NMR FID
##END=
