##TITLE= Ethanol in DMSO-d6, 21.7 MHz, LW 3.00 Hz = 0.138 ppm
##JCAMP-DX= 5.01
##DATA TYPE= NMR FID
##DATA CLASS= NTUPLES
##ORIGIN= DIY-NMR Model 3 (simulated)
##OWNER= NMR3 project
##LONGDATE= 2026-09-04
##SPECTROMETER/DATA SYSTEM= DIY-NMR Model 3 / synthetic
##.OBSERVE FREQUENCY= 21.70000000
##.OBSERVE NUCLEUS= ^1H
##.ACQUISITION MODE= SIMULTANEOUS
##.AVERAGES= 2000
##.DIGITISER RES= 20
##.ZERO FILL= 0
##.SOLVENT NAME= DMSO-D6
##SAMPLE DESCRIPTION= synthetic, common time-domain noise, LW 3.00 Hz
##$BF1= 21.70000000
##$SFO1= 21.70000000
##$SF= 21.70000000
##$O1= 0.0000
##$SW_h= 500.0000
##$SW= 23.041475
##$TD= 4096
##$NUC1= <1H>
##$AQ_mod= 3
##$DIGMOD= 0
##$DSPFVS= 0
##$DECIM= 1
##$GRPDLY= 0
##$NS= 2000
##$TE= 318.0
##$PULPROG= <zg>
##$BYTORDA= 0
##NTUPLES= NMR FID
##VAR_NAME= TIME, SPECTRUM/REAL, SPECTRUM/IMAG, PAGE NUMBER
##SYMBOL= X, R, I, N
##VAR_TYPE= INDEPENDENT, DEPENDENT, DEPENDENT, PAGE
##VAR_FORM= AFFN, AFFN, AFFN, AFFN
##VAR_DIM= 2048, 2048, 2048, 2
##UNITS= SECONDS, ARBITRARY UNITS, ARBITRARY UNITS, 
##FIRST= 0, 5.998531, 0.023277841, 1
##LAST= 4.09400000, -0.0019532204, 0.010543104, 2
##MIN= 0, -2.3937256, -1.71586, 1
##MAX= 4.09400000, 5.998531, 3.9588359, 2
##FACTOR= 1, 2.234626952e-08, 2.234626952e-08, 1
##PAGE= N=1
##DATA TABLE= (X++(R..R)), XYDATA
0.000000 268435456 190757579 47495594 -30130090 -1837733 52021837 47536634 -14016234
0.016000 -76976128 -101869232 -107119698 -106922504 -90041855 -46671276 -2976669 4443658
0.032000 -19943170 -32459595 -730082 47405599 65200739 43069492 10798402 7071563
0.048000 18367503 25067595 9547304 -8503905 -8206381 608363 6492348 -3729295
0.064000 -8284241 -4868246 1262288 2916168 -356112 -3725828 -1240193 2880433
0.080000 3124225 2880177 2071971 5359078 9585440 7834440 6949806 6837779
0.096000 4174194 -1837168 -3885536 -11874204 -16776777 -21439299 -23508408 -26959043
0.112000 -27227454 -25842559 -16615167 -4877246 9225685 17933199 18763285 19136539
0.128000 27118140 35462128 42148224 41128045 30611774 15005047 -2948344 -14025837
0.144000 -16831110 -11884449 -8946176 -20468961 -40608000 -49716424 -38023762 -10340457
0.160000 7618742 6033883 -2650185 -2530710 7791921 19315592 19803799 16299855
0.176000 14778688 14301957 8874134 -2391178 -7060920 -1855606 4881832 3865148
0.192000 -5266339 -13019347 -6680011 3193542 4004938 -2150289 -6747738 -2125834
0.208000 5227453 5940765 -564748 -5483821 -1132671 3500553 4268248 -1023329
0.224000 -3618146 -581228 4033756 1617937 -2419236 -4147122 -4355526 -1035850
0.240000 -565023 -5949891 -7382783 -3676639 3184375 4145726 -122854 -5898
0.256000 3142106 8273736 11617531 11043688 8544605 5817997 3321012 2098315
0.272000 -816115 -1364683 -4081080 -6629301 -8784275 -12221999 -10244904 -7682007
0.288000 -4846875 -3465912 -2264180 -908637 1521511 4675511 5283980 6234166
0.304000 6051068 6063235 6400871 4125503 2647804 -145301 -977030 -1340773
0.320000 -3023791 -2337627 -2309215 -2335241 -3533566 -884629 -1140377 -83466
0.336000 -1094534 -279727 -313565 777251 -1258418 -698591 2345451 1985196
0.352000 -886289 -698420 -531856 1715789 2075880 1180015 -735950 -173131
0.368000 1183821 1624557 -655009 -1942543 -514106 1823841 1636485 -944713
0.384000 286701 2188759 2194552 2651578 2287952 1070349 3528874 2750950
0.400000 515594 -2211016 -4515684 -517463 758846 620049 -3154344 -5280795
0.416000 -4452703 -3040922 -1638076 872511 -685430 1357999 2438446 2583012
0.432000 3542695 3538720 4069633 3222968 1012721 -589967 -994506 888445
0.448000 509277 401886 -165962 -2542980 -2270863 -1594434 -1378647 416872
0.464000 -432344 -158702 42308 497237 577585 136724 1187081 1180123
0.480000 -186374 -621031 -891606 -39523 963964 -411407 -2277449 619624
0.496000 -801827 -370933 1897966 -648588 -1245368 -628069 208068 553215
0.512000 433414 -1429747 1187630 -210268 -427351 358627 154469 -346263
0.528000 1643756 781164 230270 1713704 480182 226364 -764758 -493203
0.544000 61818 535265 -567987 -1900592 -333325 -991668 444649 2599919
0.560000 1151656 -1134035 1078775 369990 3291484 1894802 855040 1508112
0.576000 -159272 87446 -749604 124345 834495 -206585 -195412 -80571
0.592000 -2358540 580987 763670 -725599 -740308 193591 1241645 -774181
0.608000 217445 -990368 709236 -316096 56099 804721 -221724 985326
0.624000 148480 -554806 -342771 -980165 -734628 -477405 249701 883641
0.640000 -403064 -136816 2205376 441572 -202129 -76678 -973476 795517
0.656000 -331123 543299 -353013 -1169235 454210 801757 -8372 -244023
0.672000 999781 358420 -1883813 1173371 293403 -402123 -645057 -104205
0.688000 219793 1765343 -709678 -62617 1477395 1428457 -61325 930140
0.704000 253977 830848 480067 -357304 305583 4468 -119192 668988
0.720000 -1258343 343991 -239690 1278391 -604665 -210931 1184776 1214375
0.736000 -159384 -362424 820208 -1595970 -260957 216170 -119086 925128
0.752000 504071 295770 -1055085 152097 683385 -372931 -499611 284131
0.768000 -149123 -210957 -762990 700539 -176377 -1263823 -1574428 -8544
0.784000 343975 -533101 -800332 -1070795 -967854 178448 -246330 -2255842
0.800000 -834225 104382 -807910 570730 -465085 -808284 1417286 -91042
0.816000 165998 -409518 -447217 129508 661464 -166350 -106727 -1081084
0.832000 -119825 1106686 1028528 690437 -102548 -875712 -1036885 -704551
0.848000 422328 -313197 932952 1892998 1027661 906363 1908487 126501
0.864000 939598 204563 -811523 1041053 27842 344994 146536 153235
0.880000 -1594278 964971 -241131 -1805068 1239413 -1229441 -473575 1650221
0.896000 -49654 446460 -495364 1221572 -2152104 -420447 -290526 -507532
0.912000 1087960 352017 -294325 1450932 594219 1539999 133329 -1296755
0.928000 952173 153300 401260 -469616 633210 809765 18996 1614836
0.944000 -822638 740030 -1810518 -1672039 -905016 -54012 -821950 384584
0.960000 690029 -1835746 8042 40154 208488 -815708 -885077 -1332695
0.976000 277547 657988 1311076 -1020594 494426 422165 419395 -1069723
0.992000 -127785 -1030463 83955 1185508 764666 127075 782095 -54659
1.008000 118484 -763783 792722 -541378 -208024 -635207 -487545 -76344
1.024000 -312566 147216 -784153 -180212 -1018208 -575007 1397456 -906630
1.040000 1794833 -539764 1392005 -865897 -297136 908500 989484 1188645
1.056000 -703428 -714619 1270720 59562 899388 -409206 236355 655617
1.072000 -541981 2043201 1155999 324342 1070133 464183 -495609 -2411941
1.088000 -1462278 -121767 12910 -20109 120788 199015 120904 305646
1.104000 -368733 1081573 -929238 544186 517007 -1568611 534472 1276029
1.120000 735938 -696775 357406 833041 -375604 38297 -122818 45925
1.136000 2157608 -277226 387570 1192295 144220 42403 -1496169 -2065567
1.152000 -1664195 -1323122 1635783 42533 -302329 -505427 485562 669164
1.168000 1093149 1107046 -767805 382382 1098361 -487693 -914378 1268580
1.184000 -401561 -235789 703423 -562829 348465 207118 992540 -479766
1.200000 94645 -658296 -302796 1004840 908658 862532 -1347073 -799686
1.216000 -949238 -16635 -755585 -1211937 89837 -163008 -913312 857468
1.232000 518929 -195851 -1719479 -301146 966035 -154116 810063 -1509587
1.248000 -766032 -491183 144319 -944734 1136501 -450456 -489857 481657
1.264000 53560 -1570061 487075 236439 354017 -23998 -1637891 -150591
1.280000 -297728 1060881 -656526 315819 -264589 149693 142375 -356641
1.296000 -481427 1667754 -793480 627546 -1439613 -815035 -639793 -1072078
1.312000 -758586 1635403 -119665 -921279 -3010915 1666242 30900 -19398
1.328000 748449 106269 -1796174 -1652817 395372 5754 -553332 -1555332
1.344000 -1776952 236170 882041 -862599 124503 105861 1256350 -1243931
1.360000 97460 -606979 384437 -1641878 1238339 406061 -1268154 677000
1.376000 -602710 428756 1023083 1496811 1103112 -320343 -812066 -486866
1.392000 190097 -623258 -748023 -1518445 -9715 -672202 347992 1689301
1.408000 312795 473358 -754224 289268 -1562696 770917 236561 522590
1.424000 600343 268715 -513737 -259174 1028850 253910 459419 -113863
1.440000 -1515273 58839 -914552 281324 765416 -56739 1233723 1172031
1.456000 117623 -264562 -868241 -181404 -471273 1171550 446645 -38298
1.472000 9298 -75078 -106737 -1300279 498194 78875 -161035 1064418
1.488000 875298 -515236 -164939 424338 669935 -432652 -302897 -1052602
1.504000 528855 -219136 865761 280625 -34972 -2704246 713042 -943772
1.520000 774927 -298808 142903 -339232 -769389 -550384 1899022 -757829
1.536000 810827 238437 -326469 -1165275 558163 -873567 562159 1257081
1.552000 -149085 -282009 106376 982739 58240 537464 31067 965059
1.568000 312678 -44777 -438646 -366525 -881603 640066 346869 726131
1.584000 -1197207 -419288 -57733 311139 151970 1120162 -875038 -1378999
1.600000 -318102 -1309818 1111192 -1005600 293427 -1835990 182976 1658796
1.616000 342765 113492 603746 1055968 -1649073 92511 -1380252 -1122587
1.632000 -322900 248434 -961443 349155 -470653 91513 714844 -345979
1.648000 1190727 131458 -453715 -899357 -455767 -302345 293638 -77568
1.664000 783773 -837045 -382913 211649 -796467 383632 -1116406 866407
1.680000 64915 1312012 -148490 -602032 -1239263 166532 -242616 140268
1.696000 -680311 235418 1310212 -63259 -956760 534004 999582 -1091152
1.712000 -813248 -1044407 45444 -1111421 -1940312 -1665128 -1659218 160740
1.728000 2245987 -1749484 -809306 687501 -431420 650132 -356473 373454
1.744000 21375 704672 -525980 279336 -159332 1535514 496494 257843
1.760000 626336 541948 1006131 8087 1512373 -161218 616226 -691926
1.776000 490083 -274928 58391 -271643 -1224397 -362691 570385 327612
1.792000 -142262 96121 971895 677021 79789 554030 269536 2153316
1.808000 536571 -133773 -468726 1462882 -549988 -558870 -164925 76146
1.824000 494218 -97573 -1625281 -1812650 -177702 -466489 399753 647330
1.840000 -161830 -283411 838372 -449044 1171590 1691247 91563 -294794
1.856000 -65247 -289525 482397 499967 268837 -1136967 -1162005 -411235
1.872000 243864 1352915 -2029811 -1856527 99113 -152124 -391736 -1124548
1.888000 -39053 582438 -567572 -782492 806177 -662705 -1451379 -36781
1.904000 180596 -876148 -1031482 -426354 455455 -633464 -820081 663163
1.920000 -1584868 2141849 -195247 1372484 -898442 -975209 676551 -602546
1.936000 2228729 1409672 -338587 -350938 -1550798 764642 126887 53299
1.952000 634287 1100729 -111168 -432098 6637 -875911 -2316744 643505
1.968000 13298 -185609 128415 -1097188 554782 -107366 -595439 553644
1.984000 67783 182939 587926 -301645 -950992 555078 342439 -1304765
2.000000 -184758 -138877 2168883 -43231 1323123 -505436 1201297 551474
2.016000 640786 -316159 530283 -487281 638547 704890 521637 -858790
2.032000 -835668 595965 -1741394 38713 -579434 389430 -1433992 1303775
2.048000 1399436 152185 963332 681089 -228331 -226423 493867 -319756
2.064000 92774 919117 375968 -27975 1208540 698477 -799876 -302902
2.080000 -2212657 -1509396 -551651 -64391 -615257 -814019 93896 -653683
2.096000 -269609 -428263 -726327 179544 1432477 41791 -859454 -650471
2.112000 -526401 739654 475552 -2109703 -1348060 -749386 180462 -52360
2.128000 772522 -36508 1333022 141861 -442840 -245570 -35374 618891
2.144000 -1050884 98895 518002 -353151 -896227 115644 663113 -134806
2.160000 1077884 374576 -438588 575295 -841838 -973428 -271489 -1601841
2.176000 -222816 622209 -1316404 -78116 -678651 714316 -1339999 -727452
2.192000 -586653 -583331 279801 -65340 -2620896 76581 -291926 845507
2.208000 -1508017 -884405 -448170 1447946 -770971 -157872 271806 268696
2.224000 -1143781 -1872202 583605 1154893 572426 154334 -1353625 1144697
2.240000 610424 74867 -394722 -127090 461660 746974 49460 -209119
2.256000 -17183 -1156858 -1193109 949199 1565158 -193604 681627 -575950
2.272000 -580314 245236 -369668 -249406 -1355697 17936 -53764 679036
2.288000 997148 -44654 -1829399 1010771 -812413 -1107284 888341 -527131
2.304000 777 447747 -932809 2070075 -1172209 569964 694296 -356485
2.320000 640805 -307888 55907 1011155 -691359 489986 208976 150089
2.336000 -398682 35706 1514996 -374689 -670817 -731286 -496669 -89628
2.352000 -674298 91324 1573492 -519952 -1525245 622850 -45503 274352
2.368000 -540406 -570577 -798119 1120741 824980 -2365334 142237 -1601831
2.384000 800978 1575088 -488647 1296754 719707 238874 -80588 -715480
2.400000 -272234 268859 410486 811369 948788 1366392 -288468 -154211
2.416000 -1138743 -1712556 -1263011 339305 -1032354 160467 202133 -757426
2.432000 -321520 -114192 -143389 812641 -537435 -431451 503466 594799
2.448000 -205210 853967 191414 493585 1228923 517650 -777368 944377
2.464000 222840 -177474 -357929 -505079 -657395 -512621 198745 810638
2.480000 1061188 1571305 -319367 425860 -300073 -891564 -9461 -1114618
2.496000 -20690 1667327 -835326 -1807990 -931731 227689 689621 -500155
2.512000 287216 -775085 116990 -654419 -71001 43039 -309235 110592
2.528000 -636584 -974896 -356393 787550 34843 874570 309263 -145788
2.544000 441019 795860 -417536 -343819 -374050 -136211 1246070 -918138
2.560000 -1065259 1630502 -850643 -177606 -1951067 345357 -315577 236022
2.576000 -590740 2348207 654377 1146015 588721 -1784397 1117782 -649818
2.592000 -611117 254831 -635810 134188 -262552 714937 824140 816478
2.608000 1134697 693503 873238 -430942 608825 277418 -447606 366401
2.624000 -232839 -787366 838350 -82095 -840330 611897 -436731 342242
2.640000 -1512362 1103028 859737 576923 -913448 441241 134439 -130074
2.656000 -1266478 188046 -1547471 -119362 615640 -1263500 432248 -1493373
2.672000 773405 591351 3141430 461041 91802 78501 -1820491 574647
2.688000 -1748262 198982 -2476903 -64251 -246959 917389 985931 599822
2.704000 -91738 -1751911 -958925 -493977 668366 -70627 -873351 -623243
2.720000 542814 262887 -886862 1620054 -303471 992653 -290411 634261
2.736000 -956423 595946 2025348 328364 -808362 -674990 814178 352580
2.752000 -1016837 1147816 920176 -485133 -16833 -833682 272452 115072
2.768000 505918 -656216 -259734 964574 794427 -20335 94856 -188642
2.784000 -356835 -170727 -75314 697988 307235 460620 2004142 -1932084
2.800000 -1631589 198608 1146881 31164 -1153793 1604829 574895 -588555
2.816000 848345 -107351 -88404 4735 305090 -341940 -608983 -137
2.832000 131711 -513064 -403945 534042 864337 -171240 296975 989173
2.848000 -28941 -223632 130736 -31436 673528 267638 919150 -570296
2.864000 -348333 734780 416369 -578814 -857994 32628 -70642 762221
2.880000 -987187 787315 -526745 686516 -1422783 -797577 1279499 -100580
2.896000 322639 711756 92403 819984 -930540 412693 -432229 929607
2.912000 -379840 146147 -29785 -920741 648720 -1287983 540869 -1876866
2.928000 1242249 346530 240408 2432812 292586 -953652 1998908 -332075
2.944000 -172274 -293718 -405493 711100 897609 548623 -1072423 584334
2.960000 -1156866 689993 -499368 -165168 -1151719 -102481 -1245025 -189799
2.976000 -719572 312513 -844512 280366 -913632 1729556 -388576 798209
2.992000 503947 2117655 1102909 53590 2896458 -788003 -735171 1019909
3.008000 -32116 -671269 -469660 38172 97234 -471021 615565 -21101
3.024000 -400284 -2679116 1180572 -67866 -639656 243662 -703784 -1529233
3.040000 30720 -236761 145663 -548645 1523172 2260254 -56650 -1018408
3.056000 -377078 -881200 -473890 32585 -240819 432015 -273495 -683478
3.072000 679674 1105499 -1727090 1733833 1910213 -74282 -143340 267503
3.088000 -573430 -590874 -247552 1284186 -1041578 1133602 -874133 1226553
3.104000 -482228 -1388823 864405 118801 -1175223 617207 19820 287873
3.120000 856744 -1258566 150861 1802033 1057246 -785936 2655265 1155634
3.136000 -852487 -52119 407770 2124404 1202739 -73259 -718287 1099941
3.152000 -1025860 525809 316499 -1119658 -521262 -641612 1303171 1127857
3.168000 716507 621570 -1272232 511892 763951 -88831 -616180 512004
3.184000 867643 1901800 878886 -247167 -212264 -422885 928980 -188457
3.200000 377810 -779692 1178504 472814 557441 1293965 -399784 -922786
3.216000 386532 548260 179234 22420 164779 -1087721 78028 -263450
3.232000 -300710 576312 1398287 910095 85596 1270204 -48944 -1256415
3.248000 553390 -1350492 1220864 -196755 1200913 247790 492966 -463579
3.264000 -127618 1707 -316011 -398588 -615284 -827879 1748284 102024
3.280000 221570 -138022 127632 726990 501399 -507337 -1195179 375185
3.296000 -688623 -114062 -1239729 -1214324 -1171759 -576557 -1025968 -772987
3.312000 314936 -872584 1006194 -1965021 1758779 293592 485312 1417496
3.328000 734186 -781799 -831642 -212080 698295 -300859 -293395 433406
3.344000 -1369840 -296606 661556 393782 237811 183496 -432708 992915
3.360000 309994 1199367 -167068 -1938385 1165304 666564 -687577 -486198
3.376000 -539751 -231657 1252166 730490 -1886932 -18222 1467585 476508
3.392000 -84477 2100502 945530 48178 -2127511 370597 1270169 265691
3.408000 -317506 139803 466786 -982645 -991165 -357316 131235 -1331240
3.424000 -967537 1326628 628851 1502559 -765682 213080 -1022254 -1539739
3.440000 251384 -1391624 -977526 563573 -279914 -923646 -490425 -558807
3.456000 437913 -818020 -151968 -449491 -210169 496853 -969760 744479
3.472000 -779424 -204538 -490057 1752417 519184 1174532 -922252 456576
3.488000 -665559 486520 -1644094 -630277 1081018 -380810 814949 -2058986
3.504000 -203866 -31987 659181 1281373 -568767 -26662 -1478521 -755175
3.520000 -828510 825098 1176816 -292815 -766710 -60454 -20829 -304939
3.536000 -1613153 1458020 -838179 261870 1610597 -147207 462863 1271008
3.552000 -450627 -382356 20963 1477453 97703 513083 505609 455527
3.568000 1407291 -1166873 -1243069 -1222195 155945 1487399 270848 -450538
3.584000 -611125 -1013206 -1238561 1148276 768757 898126 799630 -26875
3.600000 -623527 -6000 181046 1378726 -375263 -933355 518260 -480624
3.616000 296385 729348 29938 -397734 -217063 -1121527 -98997 -373275
3.632000 387552 -1430625 772735 -1033979 906875 -10692 -72510 -1869398
3.648000 553566 682877 -774891 1343730 -333590 -149921 -30467 447015
3.664000 114908 -237149 1324960 1600623 276975 -903564 -619036 -911861
3.680000 94383 130336 -1075804 -326274 -823083 -346125 582511 261006
3.696000 -2701604 158976 -76932 2154307 617807 -1725732 -635396 -1612771
3.712000 -808577 -263308 946104 2064793 1452099 -804530 -785369 253407
3.728000 1046244 1432221 712850 -67114 340939 1066042 551499 1214992
3.744000 -189811 -831825 -1450114 -1288043 -514684 1528178 1551447 9938
3.760000 353531 309643 -919161 -1646971 -5624 536346 738033 126104
3.776000 -190053 -1090630 184538 -1406350 -777892 -795506 -68002 320673
3.792000 -1368804 296956 -2002741 240664 -1209863 1797356 -861120 -1151913
3.808000 -108152 -663642 -564295 978244 208874 -367050 -1012218 1073373
3.824000 1411669 598950 -823341 346285 933067 462030 -337622 654500
3.840000 3269633 498188 -725316 -146487 -38459 170233 -865508 155426
3.856000 -1032578 -747612 -953880 -749055 -1059338 -613670 1170578 -374105
3.872000 -542297 470047 -1838518 -1463135 539077 -70844 807084 323695
3.888000 671485 1229351 300610 -47048 252407 -1241386 1486965 524477
3.904000 156287 229639 -45445 -129521 -324620 714501 -854693 1483487
3.920000 -75708 -1262164 56257 59907 -351146 -341687 -391360 -739493
3.936000 -206260 245734 680719 -386190 -810759 -912093 -961950 578312
3.952000 -575465 -505482 239308 817763 -484637 -995570 741991 600580
3.968000 1064809 -536959 860160 -422816 -673364 -1367437 -510406 660907
3.984000 -852105 -715713 -4061 -107562 173026 -366867 420085 -544381
4.000000 1089415 -1192486 363822 -1340399 743963 1105561 -593953 1007409
4.016000 -460572 -1355030 -1655863 357622 -1186701 141464 330884 -1605484
4.032000 449835 -774358 -1165878 1428138 -157984 -925153 287166 -623976
4.048000 1059687 289225 -347610 -1159744 -691248 33465 452091 536333
4.064000 1210777 -266005 837191 -1448260 374501 319745 459950 319947
4.080000 -938429 -218479 83233 1145086 361328 -527350 741001 -87407
##PAGE= N=2
##DATA TABLE= (X++(I..I)), XYDATA
0.000000 1041688 149986179 177158692 96791219 27348421 41849186 104351361 134885649
0.016000 110311038 64310298 27136179 -10164876 -50471033 -76785077 -62266222 -27282700
0.032000 -16012703 -44691061 -74006307 -62672348 -16746808 21442431 17878844 -364569
0.048000 -3710460 12043118 25115015 16183523 1002492 -2271307 4159755 8919422
0.064000 2355907 -4727731 -6345089 709824 2913740 -78091 -1586163 -2882107
0.080000 -963154 -2138097 -3041927 -2863371 310387 5073243 8768510 10500250
0.096000 14685813 15972627 17500934 15283854 13077020 8753911 3343289 -645094
0.112000 -9987525 -20275678 -31892085 -38292107 -32418457 -24836356 -19366461 -18258866
0.128000 -17868297 -10912427 2399325 18330433 33470754 43185606 38895301 29898019
0.144000 17792048 12818806 18136625 25959571 17954332 -7762952 -32841399 -38183056
0.160000 -23715167 -10446102 -10507647 -17637232 -20328660 -14759267 -5310118 1527340
0.176000 1116879 7610865 14549195 14548181 5592823 -890645 2205436 11217831
0.192000 11026580 1587721 -6556553 -6924602 2784908 5244982 -260365 -6498535
0.208000 -1576467 2903231 5973960 -388782 -4006128 -4896456 3767544 5708531
0.224000 512820 -2724839 -1837738 5104862 4218400 1222034 703068 304919
0.240000 2735032 -609358 -4936924 -8593405 -8466589 -1771322 -1749269 -5820529
0.256000 -7457044 -6002766 -2603608 3967091 5918079 9108413 6871506 8982832
0.272000 7725293 6920380 9119233 7819561 5714376 -74742 -2869043 -7014624
0.288000 -7740497 -6654151 -6542237 -9811642 -6203340 -7664769 -2407123 -2118772
0.304000 -1361948 443198 2436607 4160995 5346343 2878950 1641742 1060746
0.320000 1505789 1106290 683723 -460674 328132 -735250 -1302335 -1481206
0.336000 -1583158 -1178118 -90449 -602299 -475339 -525768 437910 674647
0.352000 635507 247960 -400764 -346005 1291360 1845142 -1013826 53731
0.368000 916284 581647 644425 -1079607 -4118291 -754003 1413239 -440204
0.384000 -918812 -1174347 236234 153124 -189840 -395573 1531343 2388300
0.400000 3876511 3044625 -509958 -780269 1252930 2029113 3605364 1078694
0.416000 -1673842 -3159911 -2648278 -112943 -1640529 -2025406 -1728221 -1285597
0.432000 -405883 -1843898 -123470 1440876 3751983 194633 -708583 1330522
0.448000 4003493 2201035 1172194 930895 -634562 -511122 -617297 -799105
0.464000 -1213064 -1422460 524656 52243 -21057 1133365 -862371 13850
0.480000 -2250012 -196155 -502518 -369844 1206281 90247 -93656 -1414541
0.496000 586134 -163515 182434 -607919 562865 1037599 796869 519931
0.512000 425720 -1107464 81070 -204386 17971 -183510 -1018398 -608750
0.528000 -299587 812318 1383215 294001 -1340176 -292756 882094 -1378450
0.544000 458216 152022 -1332219 -1000093 -502156 -1050494 -1688170 1692231
0.560000 -2476700 -1061704 -576026 1182731 312956 1431325 1552704 72342
0.576000 2878598 226112 348339 176173 241345 -899503 -577848 318179
0.592000 -919383 -1501671 -40390 -2284133 437842 -740294 64088 -1118620
0.608000 -200947 810561 -383169 -152379 583667 -458447 314589 -634789
0.624000 362236 158409 -1981497 296255 10713 -360634 459986 1117579
0.640000 234351 -576624 -632380 -775925 282145 -1530948 -432476 345235
0.656000 273977 626826 2608336 122924 330501 82520 889857 914528
0.672000 -153413 907158 946922 -2490426 293748 -179111 -863391 -847294
0.688000 126914 -795713 -329257 -55499 -166470 -1073524 242755 1755510
0.704000 -351123 772550 579073 -465754 -181427 -1060760 -383987 -41923
0.720000 -1040182 -1479243 73506 -264351 -800023 911627 -826095 -805667
0.736000 735361 440558 370122 -713781 -109500 -338222 -74644 -365478
0.752000 -874912 -742668 -1411708 246920 1127899 -874418 677369 -203505
0.768000 47464 -268216 113214 482404 207426 182747 -893871 -1026127
0.784000 250102 -132617 -459910 250422 -113197 -580750 -755921 -718356
0.800000 -57425 -128540 -892292 -496937 -791025 -887481 -554598 -608030
0.816000 750695 1488196 526523 788212 955645 -1163397 -145731 -536400
0.832000 520823 585831 124770 260395 -1214032 -508326 -1568904 1978143
0.848000 1423743 1639521 -1375616 -1434097 455476 -336734 -533196 1574837
0.864000 269029 560734 1333197 -1319622 250973 -299382 1041423 -145192
0.880000 -143295 -715077 -868704 -671392 -410445 -1585986 154508 -364674
0.896000 138607 408966 -570595 502977 -230748 266515 116838 -268026
0.912000 -449939 -960568 69251 836979 -607577 -326974 158366 -132551
0.928000 -859999 -964379 997161 726075 227428 -1539010 -112048 -378894
0.944000 -330061 -49236 689463 -407042 878974 -356611 -162548 -949920
0.960000 -1652383 425324 -114607 -415823 1217517 1298070 -1601145 1281142
0.976000 -431396 -483724 -417553 415793 -732859 -1445907 -450910 -681508
0.992000 -627078 481909 1538121 171364 822375 296033 1439153 140760
1.008000 -382718 221875 -139073 1543081 -233770 870655 -380414 -339181
1.024000 -12428 1402781 -352854 54883 -426060 229397 -446240 -310238
1.040000 914726 -2552295 1300129 -457773 -361123 -91718 -1727293 -431877
1.056000 745583 141303 938104 247105 -594687 -295005 484929 302356
1.072000 -2368439 750626 -1976601 -681950 -660897 1049667 1412460 1166421
1.088000 -934162 284705 -26434 1195056 -187797 578565 -662976 -118583
1.104000 -818758 -1156170 931216 -390986 743383 1755122 1073699 742578
1.120000 1332056 -824154 -483177 138858 1170534 -958684 148264 1214616
1.136000 1453787 -1273891 -167261 740836 87866 1120258 -1085539 483373
1.152000 636794 -131865 -475922 -1280119 -281456 -233034 648337 439839
1.168000 -174982 -361041 186964 -724811 -1063948 -82777 6396 1028895
1.184000 1083530 1330626 -1060231 114225 -285688 1379052 -791840 643967
1.200000 742370 -852067 202656 -454050 -178302 -1486022 -138720 433548
1.216000 -961035 -728274 393764 -1923745 31101 -207531 -492536 1513263
1.232000 -146184 -1170673 878024 -1000102 -132435 33708 627909 149917
1.248000 -600369 766724 1253293 -892026 -285410 420667 414279 879267
1.264000 512195 548027 -222254 -709049 -287741 -970297 66710 93384
1.280000 610332 -265198 -563762 -391138 1380934 400121 -3291591 329880
1.296000 652780 657866 1257173 8865 1352444 -1102121 -237139 -107867
1.312000 279822 -1150707 -104399 756544 1266148 71679 -73733 1686040
1.328000 -1332892 -2302768 455864 736735 -1164992 187212 1070466 -162115
1.344000 94345 707091 -99136 167759 -224882 1008315 -625029 -199208
1.360000 -275761 -1353722 835147 1090205 146575 -711066 -520233 -735670
1.376000 -69283 675952 982039 -1715499 572928 -783394 901649 -831073
1.392000 -601221 594586 257532 -578353 660080 -561013 -242790 540981
1.408000 -770861 627613 2730990 -1314573 302837 -1462204 10033 20450
1.424000 495490 -220718 610940 -578510 -481120 -1588464 -441663 -276743
1.440000 1649327 -214931 -470519 157415 1436218 856971 1402131 -460575
1.456000 630425 -875113 1092 -1473572 70327 1169072 125891 1705599
1.472000 347397 450428 302245 234473 1364742 -788192 1807622 421696
1.488000 567148 -350122 410418 -275172 743550 79633 766169 48193
1.504000 717628 458343 -1883020 -722432 441658 369202 -1455552 -1414920
1.520000 122526 109977 -1594926 395792 -323224 100910 -27599 1161415
1.536000 142289 -326505 -420070 601633 1350580 -610870 1464398 -164873
1.552000 -1988122 1190590 -232098 312018 243854 110208 -841608 1002863
1.568000 -834726 730987 363097 1567509 -1038944 192726 -640101 -1202841
1.584000 1785431 -206779 -110260 144320 -383961 966773 1083225 2349543
1.600000 -365880 795578 -637595 371472 1045827 1192634 556704 -936979
1.616000 -54182 -609514 -479178 -943876 273431 -765114 -915144 948918
1.632000 165790 600545 -1319137 250992 1201203 -8231 -255259 809741
1.648000 -656196 2295 835708 449042 1947474 -641768 -1018890 -130900
1.664000 -193822 -1393387 -900028 -124284 710962 -616852 117615 1643118
1.680000 794747 91988 1287135 -155818 -950314 -514992 1581188 -2918667
1.696000 -1291084 -369795 -1254027 -429323 -1013171 -578283 88695 -1494830
1.712000 -318861 647171 -823051 -42868 998485 -411896 798571 1450701
1.728000 1544229 854999 -712716 -167858 882742 -1346359 -852274 731560
1.744000 -51108 -516859 821978 1310490 -802804 -327288 -82452 -217435
1.760000 66408 -1453139 483535 1912522 -376724 -66169 -597420 1097208
1.776000 396110 1961467 658575 1058403 -581371 -635449 -1572002 -802706
1.792000 -262241 52104 -1655073 -106233 -136860 395754 515598 -258526
1.808000 -412895 -616352 -86263 341516 824568 705068 833584 -581042
1.824000 -1715927 360140 1073015 -70631 729223 -938130 1388184 -421567
1.840000 1299855 2017879 277089 386005 -264824 836200 -409032 529579
1.856000 1861474 -2436369 -473166 -1352911 724181 -684704 49285 -435794
1.872000 442683 -976897 65035 -1140754 613487 125698 -2423638 -2352006
1.888000 294026 142938 1422626 -672189 -458810 -237894 -1166272 531619
1.904000 1051958 -1168947 1433730 -886422 -996392 265080 752932 1109525
1.920000 -210038 364362 1284941 -1095203 1024759 982565 -72771 389175
1.936000 -557747 -253931 -670258 170321 496699 992858 -595458 -80283
1.952000 1734693 127145 1290118 -73108 564561 -764744 -218779 180958
1.968000 713269 -592773 -352591 368540 266537 292277 -757987 -1129286
1.984000 -1381733 -1726280 -714716 -238364 2172354 1185534 -1667582 211176
2.000000 -336027 -692087 341831 -1250333 242474 205435 986030 -92927
2.016000 1221217 601387 495589 1186955 314730 -665278 -390810 -389670
2.032000 -828441 1279565 1885190 -458025 703116 645405 1122694 436208
2.048000 316869 328492 532303 222987 -701181 1793424 -291465 837747
2.064000 -270203 265047 -462278 664790 1094134 1049510 -134343 894915
2.080000 -931066 504158 -683968 231963 -299320 -197636 -672370 -994319
2.096000 -769820 209932 -321519 2206417 61380 -162450 -1818298 410198
2.112000 -161441 992935 -1001151 200868 -822773 248309 -1566442 -99339
2.128000 89422 953553 -289638 653628 941848 -2408000 294696 349765
2.144000 934613 549436 53502 -637627 -292159 591993 -485639 -3103124
2.160000 305768 -362489 -266554 -178456 -545191 595628 594350 37623
2.176000 2270589 436739 480230 -56993 339805 -7120 -9530 -1047489
2.192000 -1410462 534626 -238039 -205548 1099527 1146631 434505 -935726
2.208000 -575411 -1164146 -104091 -538641 1127250 -1672544 534995 -253384
2.224000 1037876 361761 -419333 823788 -297031 -278903 -1501166 -674216
2.240000 540179 -528442 -20640 -852574 -246384 -1932479 1307323 174881
2.256000 391347 952235 458263 1510577 -1355901 -214405 1981359 539175
2.272000 -667474 452092 291563 -681838 310278 336393 1399653 196461
2.288000 1468627 212136 1000658 147163 1511236 225297 -1009219 1137873
2.304000 -41099 -216423 -1474060 -556311 -1249790 -1301598 1507906 -255621
2.320000 128874 706812 -1292635 -28963 446311 746529 1043658 226095
2.336000 735509 -355665 -504960 102623 -539377 -1345721 113601 -1483707
2.352000 244227 -988206 -868296 128491 126402 222086 -39429 4134
2.368000 1658359 -424674 -851226 -411299 1198367 663334 299257 -1608548
2.384000 76605 249319 45859 -1249337 416999 501355 1533767 752724
2.400000 1264818 656727 -956885 -184506 668972 310634 -403167 -769847
2.416000 -211496 974671 -473047 1386582 531518 672401 899042 1881871
2.432000 151174 -106177 -1432020 506273 1174477 -9855 949661 -58580
2.448000 -1139811 282844 453310 -64717 254573 906815 853892 1570508
2.464000 417442 -1402138 -331417 350115 -169779 -99698 -403764 -7544
2.480000 329282 -849768 -1877074 391648 -1276499 1158812 -620304 656001
2.496000 -391341 1503155 20798 -198178 71077 44330 665172 -1026152
2.512000 8547 -145113 690724 -155219 1500569 122465 -940540 -131774
2.528000 447378 1020255 1561468 -123378 1959957 -318624 -1615410 -993492
2.544000 -856638 -372804 627149 290668 121751 647765 -1425555 -170323
2.560000 968381 -41501 1787667 -863809 727049 675292 137689 299300
2.576000 213878 1561816 337239 -1093367 1095680 321826 224355 8082
2.592000 162543 232657 668206 309413 -495557 1359151 -81884 -117504
2.608000 321687 -938385 878071 -245090 -402143 -1579487 -1135154 176482
2.624000 -602466 32143 -260952 974695 -909392 -891799 -801154 -721693
2.640000 235015 1347280 -1071408 542487 -734072 -1470179 -781757 1975531
2.656000 603268 842160 -770378 -139603 -166898 694847 -40979 -76650
2.672000 -378023 1193657 -1678200 91820 -44606 1788990 1038468 1115521
2.688000 -277893 2274930 -469431 -851393 -609630 588925 -1156123 84375
2.704000 99482 -1059234 -240891 -715965 632827 -535682 -1411025 -1135689
2.720000 -1335510 1279779 -1323149 -766627 -710859 1780693 -2279671 -277955
2.736000 -730616 -186495 390267 -1220691 -1434300 -929029 1468184 -140917
2.752000 -970711 1510652 -2502 1175930 197671 -1192574 775892 991801
2.768000 310768 1120649 -1835296 1673407 -13495 455454 1668001 -293302
2.784000 357222 -538894 735834 1167392 -160176 -1592179 -1238420 -790192
2.800000 1278497 598587 243017 -799530 -2868 1388387 -193672 -1386315
2.816000 -850932 185775 -682445 554157 -357034 -1623478 161750 -531193
2.832000 525628 -44514 21678 -309408 2094238 -156397 409430 415932
2.848000 161571 271950 996871 -346725 -1027561 -532850 1482485 1445454
2.864000 860238 784794 -397284 119684 -79362 1288048 827094 1172629
2.880000 986482 478071 2157453 -236651 -146405 -457724 811312 1661490
2.896000 -1097857 -1074046 743308 83400 297401 1071579 -893362 -514332
2.912000 -617226 -233904 -1147903 326818 877969 -671858 -37269 -901187
2.928000 1844670 182280 -828317 111596 31958 788650 67926 -754012
2.944000 -1971866 21607 -971990 1461558 -1843213 -64499 -377362 -252994
2.960000 1053395 226795 439614 508725 1332863 -748618 1273366 -49234
2.976000 -454194 -1178042 2523839 -685334 326009 847198 1591180 -715114
2.992000 1062409 93099 -73327 -665788 243660 -623971 1483721 2233928
3.008000 -73075 459308 -1360318 -1047352 596240 -353592 1289032 803456
3.024000 69487 609587 -53 -562473 984517 3023588 1478715 -1120336
3.040000 -169279 1030288 755415 -764952 -1451312 -773508 -1010819 637331
3.056000 375653 605433 -774382 220925 -1429229 -980662 -91628 -1486119
3.072000 142073 -668340 -545630 -536171 -1089176 458330 -835562 -559109
3.088000 -561875 -641091 20862 314233 1491670 -1932820 1150487 120075
3.104000 196907 1012180 1248191 -986069 -36041 1298429 -128029 -562270
3.120000 928000 -883657 -47244 -640662 638105 -27464 -159250 -1004659
3.136000 -251024 -479886 -201832 1301513 1068212 725869 -650468 977041
3.152000 -276905 129238 473112 212294 -550497 901657 750209 -1070660
3.168000 1067707 -844424 148020 510164 91531 -1667024 1091710 -443221
3.184000 -752449 1669569 281200 415248 -188491 57338 281967 123323
3.200000 -251178 2503571 899031 473725 810611 1154142 447577 70498
3.216000 278056 599865 1250724 71986 -101503 -455288 -731307 1375958
3.232000 -653339 -170227 436656 -791711 345820 155516 -1230384 -1864379
3.248000 1044406 -561812 276289 175577 -943192 373248 71231 -726830
3.264000 -541852 598161 1257646 1380844 458800 -932103 156647 540945
3.280000 464762 -137793 -683484 -1417453 -180361 121708 794464 1111777
3.296000 -317618 -1163940 -193377 273356 -336213 -1496755 901431 989281
3.312000 -588333 -1937117 -1616696 -346647 -454870 -697825 84839 -202484
3.328000 929332 -663361 -151282 -1349336 1294692 442729 -1513250 -726639
3.344000 -80889 -144754 730993 -94668 -1674360 736394 -1727245 1765014
3.360000 125193 -221488 667138 217905 672222 -305022 947350 278996
3.376000 -1233876 -162038 -273233 658584 -680942 -719320 -888861 -113645
3.392000 -282588 688499 920669 -321685 -193759 263648 -663077 -138848
3.408000 -963142 1967847 -564082 1058972 501342 -594479 706030 -858435
3.424000 892280 247614 180374 -13610 614783 1204137 -1664367 -235932
3.440000 -279876 527674 -804721 842571 -163342 1218633 667558 -1364373
3.456000 -2518421 288749 -458907 -563657 547477 476508 -240845 2523403
3.472000 645412 309060 240007 661504 162916 457494 739422 -969345
3.488000 -1069985 -581510 723593 -255312 -782328 -313909 -9603 361528
3.504000 -15543 297587 -1268630 171204 -1423640 -820207 2003848 -6172
3.520000 501622 -723804 766814 629586 179987 1892939 422896 -79061
3.536000 32940 569181 1038812 -1489537 -160961 159685 39563 -67839
3.552000 1406770 -1078161 882744 1209271 -357076 -658624 -2371675 -1212274
3.568000 -1452369 -709732 372273 108830 -663056 1456873 -111726 1490659
3.584000 314047 -1616901 -8327 984345 1849822 1090439 -426154 -314773
3.600000 24031 -544081 58164 -568287 -870772 -75942 -1174627 1170096
3.616000 -1249342 -920256 358550 -131762 -315020 1328768 364026 -1129976
3.632000 1705240 1123957 1025650 -265842 -927869 -372538 -11701 -655327
3.648000 1438365 490818 -463140 1280368 1467830 -718259 172498 -493274
3.664000 750266 625716 236177 151663 -824092 -1532203 393671 -1357174
3.680000 777266 -948812 638171 -751486 358365 227177 60655 -1897513
3.696000 -30554 -274709 1361459 732456 -806909 -20737 -168291 72858
3.712000 155795 -323272 1493353 232195 212442 1042227 -956377 473190
3.728000 -728511 -24740 -1207659 513952 -823594 1300772 -802242 442371
3.744000 -226597 900238 -841750 157504 -714099 -629031 1543051 -664671
3.760000 -1314596 -1735537 -76365 84225 516911 698866 -841439 643716
3.776000 -56066 257657 444809 -24234 75940 -1581082 -529857 -2492440
3.792000 -101108 -1352149 -1261922 353797 -579572 -457990 339284 215701
3.808000 360222 689888 408121 52169 185280 -1018970 -570247 -776036
3.824000 190231 500514 -437228 766647 201142 248181 -74609 1148338
3.840000 1160650 -254094 621395 -42163 -633550 -925031 6530 -1664609
3.856000 -172303 892182 542365 1359803 -586364 187105 -132016 298338
3.872000 -513560 858477 1690392 826182 -178932 692388 1248841 -814090
3.888000 -214680 1724925 657575 -470177 -1024239 1315017 -117605 -810855
3.904000 -103336 280812 -84846 -1677995 -362646 398421 79396 820215
3.920000 -88661 825315 346987 -1449553 22076 800847 581374 1086857
3.936000 401464 1107876 102283 -413922 -13895 25293 159652 -831224
3.952000 692481 159565 241086 -1423231 -1605857 -148244 1116108 576415
3.968000 -1471460 610264 114777 887437 -473806 -671827 1003119 231159
3.984000 121387 936680 -178795 -853861 -1298962 194725 -447211 78393
4.000000 -1577913 662628 -754635 -473829 -401693 -2582735 1475942 -240344
4.016000 -12053 612476 -523735 398288 932472 -355211 1002886 185026
4.032000 178139 297959 -238134 681748 767270 347714 267098 1150969
4.048000 1039029 415255 -714340 -449178 27835 -1065851 282445 -1205299
4.064000 -962614 -540534 -1126477 810782 1006732 723052 -2242250 307594
4.080000 -1794812 206155 -517627 1988531 641713 -863108 90676 471806
##END NTUPLES= NMR FID
##END=
