##TITLE= Ethanol in DMSO-d6, 21.7 MHz, LW 6.51 Hz = 0.300 ppm
##JCAMP-DX= 5.01
##DATA TYPE= NMR FID
##DATA CLASS= NTUPLES
##ORIGIN= DIY-NMR Model 3 (simulated)
##OWNER= NMR3 project
##LONGDATE= 2026-09-04
##SPECTROMETER/DATA SYSTEM= DIY-NMR Model 3 / synthetic
##.OBSERVE FREQUENCY= 21.70000000
##.OBSERVE NUCLEUS= ^1H
##.ACQUISITION MODE= SIMULTANEOUS
##.AVERAGES= 2000
##.DIGITISER RES= 20
##.ZERO FILL= 0
##.SOLVENT NAME= DMSO-D6
##SAMPLE DESCRIPTION= synthetic, common time-domain noise, LW 6.51 Hz
##$BF1= 21.70000000
##$SFO1= 21.70000000
##$SF= 21.70000000
##$O1= 0.0000
##$SW_h= 500.0000
##$SW= 23.041475
##$TD= 4096
##$NUC1= <1H>
##$AQ_mod= 3
##$DIGMOD= 0
##$DSPFVS= 0
##$DECIM= 1
##$GRPDLY= 0
##$NS= 2000
##$TE= 318.0
##$PULPROG= <zg>
##$BYTORDA= 0
##NTUPLES= NMR FID
##VAR_NAME= TIME, SPECTRUM/REAL, SPECTRUM/IMAG, PAGE NUMBER
##SYMBOL= X, R, I, N
##VAR_TYPE= INDEPENDENT, DEPENDENT, DEPENDENT, PAGE
##VAR_FORM= AFFN, AFFN, AFFN, AFFN
##VAR_DIM= 2048, 2048, 2048, 2
##UNITS= SECONDS, ARBITRARY UNITS, ARBITRARY UNITS, 
##FIRST= 0, 6.0034691, -0.026381046, 1
##LAST= 4.09400000, 0.058100403, -0.017400716, 2
##MIN= 0, -1.9166728, -1.2835581, 1
##MAX= 4.09400000, 6.0034691, 3.7576397, 2
##FACTOR= 1, 2.236466516e-08, 2.236466516e-08, 1
##PAGE= N=1
##DATA TABLE= (X++(R..R)), XYDATA
0.000000 268435456 186842092 45426944 -29589891 -1849140 47703504 42381448 -10436657
0.016000 -64555330 -81762075 -85700939 -83058098 -68986109 -35757663 -3250846 3934450
0.032000 -12139794 -20607645 -1923564 29206096 41809157 25848770 4619210 2530643
0.048000 10123722 11696668 5016779 -6015072 -6170759 1597749 2117968 -1754291
0.064000 -4489367 -2086707 1465733 2863929 -1072552 -583232 -1769144 83955
0.080000 1666349 956524 336277 1002582 3360036 3188904 2998829 2946621
0.096000 1399027 -813246 -1812032 -4917294 -5276685 -7581698 -6713708 -8083862
0.112000 -8315453 -8433751 -5436747 492832 3818612 5927613 4296028 5350331
0.128000 6691919 8610157 10891052 9206385 6667437 3542479 -1010298 -3778707
0.144000 -2910677 -116247 -3505564 -4377081 -7385137 -7960715 -6789683 -1314747
0.160000 1801557 1796156 -1660458 -1583265 1318146 3919499 2592202 1709007
0.176000 2156319 1305299 1427854 7619 -1761570 -1029246 -398684 1015459
0.192000 -1135108 -1524516 -618083 30380 -445992 -450471 -1739966 721801
0.208000 -377498 1270113 68541 -642073 391298 1079112 629291 1257799
0.224000 -511909 212158 -434194 13785 391386 -1246566 -897189 -522689
0.240000 -542242 -1085087 455408 -327979 -560104 1059166 280799 -1265356
0.256000 327543 1119222 444802 775044 1880674 -76183 -842968 268628
0.272000 -205010 -674137 10621 88729 -779601 172809 -99298 -65021
0.288000 1223914 -1993209 690197 -506131 -396211 286548 280171 244532
0.304000 399263 -1252220 -309185 -1031516 -1872602 -871347 -685692 145999
0.320000 -277905 -1495943 -1687433 526675 1453730 542302 562732 711189
0.336000 811656 1067169 259401 -639677 25540 567051 -248207 -1886700
0.352000 -1332990 -498735 -1101822 39763 1285324 -1649581 382333 212267
0.368000 963816 -799342 607179 734506 -283682 920474 990858 -1093401
0.384000 253208 1270043 -1249101 -1009620 -1458355 835946 1459909 -990891
0.400000 -1206175 223947 -2376126 784391 -19756 -90385 -760585 406252
0.416000 -386316 2005591 -498633 -662571 1197884 -3530 649703 -81934
0.432000 286896 -384520 -124440 1006925 -590196 -387878 1274054 1456819
0.448000 272718 -173933 577544 -551053 -729252 -7889 -951407 1133981
0.464000 -483458 623137 -537753 -411001 61690 -1288441 110834 613080
0.480000 -926626 977710 -521503 -788712 -232180 954648 130365 304520
0.496000 249674 -120291 1214582 -1002930 222479 -10133 -175868 744229
0.512000 11793 816445 1989869 -1993078 -159426 -501627 535596 956278
0.528000 -1410002 -697268 -17409 -1512669 73381 -1405390 1055816 784133
0.544000 307244 -711788 -899588 2224195 91443 1398318 -385187 338951
0.560000 -734484 1939378 -1683282 1189077 -488665 1386845 -51443 226908
0.576000 399538 702706 1027838 720990 -803638 -1206059 -188088 449169
0.592000 888243 472573 529707 1320027 -350315 -177182 -1472906 888258
0.608000 -2008819 90904 1780247 -1128050 760197 -164834 -52320 803803
0.624000 1834930 -1208219 -1232976 561613 -1424416 -715252 86963 1503416
0.640000 39137 414249 -106090 817762 -1071654 -1559607 -1141825 401674
0.656000 70347 -441075 -1146141 -568399 -274717 991288 -586834 1154770
0.672000 1487712 -321372 847701 -807333 -414603 1142312 -256356 1292221
0.688000 -160222 -305526 485181 452136 -803757 -459990 251155 266729
0.704000 -259672 1406749 -1713350 -1109352 -708587 234594 118148 -324605
0.720000 977166 902785 349884 512726 -333730 905073 -649258 110389
0.736000 603824 -893207 -165491 -1069009 -455654 272175 301785 -291035
0.752000 351956 177264 938874 724032 925218 655002 -2383495 -104521
0.768000 547284 912863 189416 -1013307 -680131 -4013 1528411 -332110
0.784000 -1975521 902947 374245 -271484 776761 -1241423 -711348 -445214
0.800000 1683312 769410 -773001 1173629 -184245 469247 139656 177898
0.816000 649046 1448623 -678452 426360 -476300 1183306 1033731 -22865
0.832000 -159045 574291 758057 -11799 1128060 656774 498427 1378234
0.848000 572251 1189216 435162 -2169116 802434 259214 -1101255 -20572
0.864000 1262107 242507 -389646 -1117632 -661059 -94385 -592703 46456
0.880000 497839 492292 113494 -1336996 686524 -351908 -40393 -1214144
0.896000 -833392 -326348 622649 -85095 1114918 690015 2170540 -282681
0.912000 2082118 -533539 -849359 -892893 194301 -143463 101838 -56080
0.928000 1466587 1536376 227232 -1291951 -989534 588634 165036 358880
0.944000 -1036295 252541 -662774 -595579 1091472 -997825 -379286 -739540
0.960000 1094536 -1036869 1043299 389423 563441 -1661094 -53258 639352
0.976000 -1095843 283681 1015724 547493 -186688 -1174126 1141408 17385
0.992000 123479 -268412 495516 -864869 -196140 -38251 237782 903124
1.008000 -1649154 248738 852434 1259385 277071 703054 -884746 98896
1.024000 193782 -526978 -584546 -189691 1847006 -780865 -494471 1128236
1.040000 -251341 -326986 1049215 -592495 -138738 955552 345622 -1774013
1.056000 -192321 1045987 -89807 -864683 107121 1347811 380521 -1129631
1.072000 2341100 -622829 -388043 -97729 -285285 226911 -185118 1243434
1.088000 -1783573 -989101 76159 559089 -495084 -1611695 2107545 -990383
1.104000 -82698 -481219 1056852 -1068754 -347720 -155437 -665590 241767
1.120000 -2390923 -635466 -618638 -159632 1603050 -66889 -487993 1020250
1.136000 -142877 -1826128 288769 422144 -2120850 204824 -1184595 96816
1.152000 -401722 -546267 -306074 44158 -1062677 -308711 547280 -1204274
1.168000 -401387 26468 577479 -424743 -352404 -789764 119377 -291545
1.184000 343585 314283 496167 1795183 -792559 -403960 -118666 1091722
1.200000 346281 178635 -1390272 50054 677401 594968 45101 371239
1.216000 649532 587007 1247638 210878 415390 2186421 -1081183 -523482
1.232000 -1298858 -515029 -14543 869793 1929809 -479781 534457 37905
1.248000 1540672 130941 -25285 -229206 66652 -498336 -841060 -572016
1.264000 -156805 311715 -1309389 -550336 -1208041 509823 -101269 -1725985
1.280000 884907 762554 -970350 -727424 -1555360 1721512 -326404 -89930
1.296000 -785637 -1360951 -160141 -657916 -1150134 475825 -554832 -808664
1.312000 253011 370976 85350 -911949 -143133 1567313 112936 -241269
1.328000 113219 403019 -138239 1508187 -776710 82466 -27264 539428
1.344000 206785 601364 -503550 43814 147978 -980928 786601 -482712
1.360000 555734 646469 822788 155842 -990007 441487 520877 65147
1.376000 30647 -117608 -370136 -732629 -1849563 -881431 -1114385 899921
1.392000 796928 1674478 193061 -189983 -1152850 1996071 307405 -337224
1.408000 -204968 299049 1151910 386079 1173372 -553966 -366008 1149315
1.424000 809846 775974 -1066418 938351 -1762116 1044994 -1014896 549665
1.440000 819097 1124358 480084 -284866 -1928588 -1788382 -1225584 -263574
1.456000 306858 -1757894 763340 1599826 130417 -1678682 -111205 -742723
1.472000 240761 -259904 -481815 -421299 -634685 213740 -1273001 1858140
1.488000 174192 -901325 -1196382 -337892 -1123285 870238 337204 -403199
1.504000 280984 2119300 -1682254 -289306 -984548 1991 -738865 -1175152
1.520000 1006109 837238 -917314 -221896 2748766 73567 1694986 -339425
1.536000 -125234 935472 -435990 97596 158953 478483 -262492 498405
1.552000 993377 168270 -1073083 1415414 286909 -153509 -768248 666142
1.568000 -501679 -957787 -1546133 -2499642 -909266 -572571 230304 -823506
1.584000 -612899 -1824048 275142 755748 -621034 -1524591 -663980 -485356
1.600000 739657 750966 188474 311004 1106653 228741 44972 757540
1.616000 -990892 -769990 -339503 260250 -1113155 1204520 77458 -6556
1.632000 2386510 -167566 -343064 -1298255 -59967 477744 96633 1352098
1.648000 -909666 -106878 496158 -1441039 1424098 -50138 -359098 -52751
1.664000 262113 -1190989 -1815446 -74923 -1159735 1249259 375163 951375
1.680000 -444437 1080862 -329464 -476776 -1126191 -763182 -178219 -563192
1.696000 -1864855 -143562 -84570 815340 -456457 769015 -138007 1230069
1.712000 937539 648866 1059289 -314816 -19352 1614912 17181 -338545
1.728000 -296199 211756 161777 222037 299675 -110738 -112237 -461730
1.744000 -79641 1688890 956586 -900070 519907 -650428 40371 1782789
1.760000 -29798 -1210142 -1532062 -369300 -469991 -548152 -324072 997464
1.776000 458121 -373039 -479053 1324229 137866 -1342797 1362974 1435803
1.792000 1179904 -40543 427548 -1030992 -1260984 321587 1133861 1018017
1.808000 421446 -690015 -163482 -873313 -664697 854512 335188 -519184
1.824000 -369250 276878 922057 637684 -1618572 131547 -212125 -792789
1.840000 -813556 1557083 -364647 1665134 748409 2542 1537264 917477
1.856000 132051 -1400772 -400334 -466850 1996486 1538294 69451 -2176595
1.872000 -995527 846086 -14026 253182 -790764 -224419 -556089 -306219
1.888000 166587 -499916 -1021683 694041 242399 -700609 -825275 -968676
1.904000 -1479795 79608 957123 695335 33282 1412262 -741943 -495195
1.920000 -315792 621569 -406463 -1788460 656594 -1345426 -117569 -479222
1.936000 -65751 1355265 -327088 -347392 -956188 -1370783 -340224 534846
1.952000 570661 -184430 357185 -391885 -1147485 -424106 -970538 -99623
1.968000 -674255 -976634 293242 -483406 -733010 619746 169225 1146860
1.984000 387048 919548 -345899 285991 -322290 -827780 417784 -725699
2.000000 739790 -274092 1415296 454788 -1531912 -43345 1669023 289429
2.016000 -216427 1274705 -988252 -296261 -63775 436996 76969 916777
2.032000 -1763442 -102208 -1022358 -459257 -722588 -1081588 44932 1200078
2.048000 -116630 -940503 313598 383424 576160 824788 2008672 2175172
2.064000 -304968 258062 719028 -391586 1196931 -948063 -369383 1020783
2.080000 800975 292350 -817995 -318297 622528 -1155754 -816761 265905
2.096000 -841286 -439243 -446084 -662965 381676 593247 1069297 -315870
2.112000 225295 -2207936 -743878 -1011749 35091 -858103 119549 -1211619
2.128000 170198 406381 -106778 -982573 583631 1194076 168992 -1395049
2.144000 -1373767 -1137951 127863 881516 1112721 -1065052 -361557 -57304
2.160000 683454 -92566 361910 699741 -280397 1479426 1393930 1006563
2.176000 -32389 467576 183250 -50330 2266662 -294508 1479663 -462712
2.192000 233809 -297251 -282711 2169613 793203 -466011 481829 -1173535
2.208000 -862524 -129844 998328 383303 -373263 -710796 1337767 -678302
2.224000 -216660 -1808338 -274365 1380216 -494735 -591741 455005 -2211956
2.240000 180834 1296580 1258251 147298 51896 -1002719 166095 1121569
2.256000 -1245060 151748 1468708 -399872 -317040 -983833 -714169 524284
2.272000 -219177 481763 -317289 -384003 551681 614221 1005626 1075511
2.288000 1149342 -102569 1637315 -649735 1023948 1581479 -411327 728241
2.304000 206130 -102307 -940748 257547 -71044 334601 -263313 8739
2.320000 -836660 563830 -1933659 -1200037 83298 -358872 -112962 -349852
2.336000 -397444 -371070 -66747 -330969 -1214936 320444 -933189 -384728
2.352000 215852 39712 1438715 858900 320791 266187 1322878 -475369
2.368000 -292422 -648593 1327386 84070 410738 -124882 1409457 129811
2.384000 440711 -670700 1492356 1435364 -635403 -356145 141546 -1549451
2.400000 175267 -1565776 190677 -1012593 1357204 248882 1625475 -864847
2.416000 730755 -409016 -1065098 1181076 -401035 -816195 862385 -596530
2.432000 571506 -1803907 73255 1601625 -909152 -1487335 1841657 -1286070
2.448000 980121 999346 1239027 1555038 751029 -924932 -211729 788866
2.464000 495797 -936791 -50796 11566 -601700 -398078 -668581 700294
2.480000 625273 2262393 -361300 -1231712 -372055 1375909 -818658 -662293
2.496000 -103989 2008342 -1656841 -792926 -889282 -47659 -1041123 -990273
2.512000 562033 378676 -1460391 -731022 259320 -520146 -141734 1089838
2.528000 1066598 -1143228 -83192 671729 1189893 -26959 424126 905144
2.544000 -1483927 -1337920 -339039 1155341 -559737 347485 1489994 209518
2.560000 735898 -1079562 441391 382053 -183660 1092686 -1145604 633397
2.576000 1049661 -873209 2669989 101356 -849666 -670942 -589758 -631208
2.592000 317662 -115689 -1036061 932303 667456 459979 2301102 -2097332
2.608000 -184647 -1222921 -1449945 1467727 -51784 14163 118100 -282478
2.624000 438356 -1117081 -461222 -703634 56829 -799432 -568742 707195
2.640000 319502 -417647 474828 417251 -579973 -155067 329520 -132544
2.656000 1018999 1980416 1287257 694455 2805421 156817 -773534 -388257
2.672000 17866 -648355 1120947 267631 1312481 -65517 -885933 1098781
2.688000 797411 -326073 -102453 685907 205506 -462752 398919 823298
2.704000 -1056954 -865193 -751175 -1765061 1185644 -362990 610985 2234905
2.720000 -7972 710830 133299 -836 -1129816 1071876 -886381 -52979
2.736000 1753734 591563 831523 -898899 -681327 -223005 -926397 141856
2.752000 -805423 -414467 -1047237 1154120 -69437 -727039 1255215 905941
2.768000 -1015830 22584 -595532 2121920 242935 624764 -1115620 860319
2.784000 1109099 -152855 -244199 -220147 640051 -1072268 1119611 995827
2.800000 623895 -55108 -425435 994952 243731 296210 1176781 601503
2.816000 -365617 249471 102645 874516 -407664 -527458 479259 -1909130
2.832000 -459772 -558415 539969 563019 1182163 1518009 -879468 1930644
2.848000 286461 -1199578 -1740356 457951 -380494 -407384 -2227596 -427332
2.864000 -999991 -715901 1100787 166978 -339348 101313 -1117417 959843
2.880000 -779399 1118656 1048374 -987373 -607202 -490241 -78447 264886
2.896000 -349679 -625641 -253452 -36773 -576876 39051 213977 625650
2.912000 1636773 1075916 -94124 -362013 -196723 148441 -543774 1902267
2.928000 -636175 -1129641 -550981 439448 -74357 143902 143600 -104640
2.944000 -199884 -1040517 43274 -1443475 1425870 -829130 -730968 623133
2.960000 -877610 -203179 950759 -937622 -1142553 429121 -724207 -144890
2.976000 -18159 -641012 16959 1505485 -782421 465837 339725 1120580
2.992000 1173757 -322993 681239 -509947 254991 126840 -108548 1908563
3.008000 -793413 596557 467027 -707953 257011 -221767 -824023 -794182
3.024000 -2046423 1719472 -177320 -898660 -1315047 -152517 -261249 1520577
3.040000 -1142836 1252241 -309988 -304564 -102239 513035 1585383 -875330
3.056000 -119086 -40941 -227515 1951146 -165733 243793 508837 703845
3.072000 -134239 -522126 -1884643 -1490417 -541895 799046 2233499 751002
3.088000 -85318 -1073438 -446568 836303 1514085 -775625 841535 -108800
3.104000 -162010 1146662 -573636 -973331 -1560338 -505937 153801 -977777
3.120000 -1335411 -284673 -321847 -613875 -365554 -481300 965103 -998593
3.136000 1520031 -85869 -1051866 84295 745988 83783 398685 -413786
3.152000 316822 1795621 293806 -168729 -514834 -111873 637602 -1051270
3.168000 1259692 -1311809 321575 -947877 1266414 -781838 1503784 -1540627
3.184000 233090 -813646 1182622 1602125 216769 119469 -734189 -1254947
3.200000 47561 -870586 -1137751 1079853 1270666 1246868 308078 602617
3.216000 -502917 -207969 -221569 557538 -495877 -269886 -521604 -530547
3.232000 1300797 285530 1170825 -311924 -100877 -467317 555289 -245922
3.248000 -489373 -50566 1142308 -806569 777220 -74267 522569 163357
3.264000 -476023 544120 1747391 -885450 -1396557 -1431235 433190 193208
3.280000 -684662 -264458 233265 1149546 -143182 -117902 281989 -935132
3.296000 973037 -1301689 -1016308 -1002075 -38102 -230027 -771016 1138912
3.312000 353671 303162 24057 764620 793307 -835934 -105838 1519493
3.328000 -1195109 -647905 1328277 -106922 703186 -150981 765499 -57257
3.344000 137721 567024 -1476514 -1014919 311561 -106385 -262585 328440
3.360000 348118 1116130 -920736 910100 1036926 -1686522 -11 1139570
3.376000 1278059 -142483 -261240 -1468453 579630 575603 -330345 -749713
3.392000 473552 1111086 1483703 -211133 188055 -1420095 -1021190 1818891
3.408000 120488 657417 -2113795 651500 -790417 -470981 70840 -357542
3.424000 -66294 -2220216 189118 -693905 1028253 -46499 -697856 -1107917
3.440000 240075 -287073 -38499 212021 561824 134441 498357 -542801
3.456000 914776 1625313 572158 364728 613299 276758 -889676 1040252
3.472000 -1609087 -1106030 -1118243 -900243 -1172907 -821711 1704296 799517
3.488000 -1174869 -346159 72813 -1186443 565190 -756307 -540997 394131
3.504000 929337 318365 393862 556843 -2633 352810 -944092 533376
3.520000 1811997 300713 668886 251982 383717 1148811 -914313 809383
3.536000 -972597 -825040 1589304 986340 -117781 733136 798451 -159741
3.552000 -690826 1127753 -1080505 -234076 107288 825153 -348096 -345881
3.568000 1046070 124151 367699 412593 -769712 -1358041 356090 2029765
3.584000 -826253 -119442 1101321 123717 54906 1122623 1301253 -192274
3.600000 -157984 -1687223 876724 -677865 -658999 872197 526949 80281
3.616000 -1431935 -279743 -76344 -590611 216037 1156379 -1073549 1193668
3.632000 394213 836375 -551037 733321 244500 -178475 -349723 58477
3.648000 1309028 -299277 607546 247782 772055 -129535 239028 1103799
3.664000 1061674 690752 -396075 -402487 869717 -1332171 -265981 9454
3.680000 866272 -1149250 -1989092 591078 -1430985 474902 824981 1090517
3.696000 1153014 132715 -775947 -1864120 1587390 216927 2022549 -291232
3.712000 -1374743 708380 -318405 495152 -34652 36251 1198040 568236
3.728000 41954 876419 742302 843801 784858 956782 -129254 -444091
3.744000 57957 -1112442 -1189100 1211884 -101056 793952 -504994 -348198
3.760000 -258472 745128 -215318 806525 584617 1522100 -1388659 337853
3.776000 254223 -2134562 -1256295 90601 -98890 -232311 -19951 56612
3.792000 686419 -1084120 153388 1000724 635689 -425365 -868016 627527
3.808000 234348 875392 -821957 1538665 -11535 -567941 24148 299955
3.824000 30376 237039 -351167 1298858 -74733 -1291184 -675365 -806959
3.840000 883440 -933596 -624009 -656113 -239126 1198686 -1457793 355239
3.856000 919954 -1316767 758143 405004 -522453 1014305 1416187 -712138
3.872000 -973993 -1498610 -528809 -868322 -2177281 648971 -205786 599822
3.888000 779186 71589 1273277 -999790 -561604 -853822 -1369487 1188370
3.904000 -465762 -394968 -452559 -987301 606385 576967 -623792 2069067
3.920000 116566 -858844 -1689884 122949 -784220 -1442039 154491 1894698
3.936000 -576426 -604879 -56202 1234271 -543547 1157879 -1317374 365282
3.952000 -443342 145700 234530 -408437 -38209 416005 22058 -393097
3.968000 76728 -561354 1249410 1976253 341163 -766140 895262 533075
3.984000 649356 -377488 407544 -125643 -1541706 6462 -979072 402895
4.000000 -1471024 -386273 1049052 161074 -104987 -85743 -412008 992644
4.016000 1493180 631018 19331 -449947 372244 -884463 -316479 -241169
4.032000 1006125 754697 -660094 139041 1472203 455417 -9229 -189067
4.048000 394299 -758085 232858 434785 45167 474983 365534 1019495
4.064000 -239901 828608 103397 -1045132 179794 1156844 679904 7596
4.080000 -883975 -210954 -545590 -682577 748691 -260328 -981742 2597866
##PAGE= N=2
##DATA TABLE= (X++(I..I)), XYDATA
0.000000 -1179586 146654290 168016809 89759864 24465299 37698264 91973647 116186646
0.016000 93306474 52959653 22697937 -6905722 -38509038 -57392233 -46131158 -19613883
0.032000 -9924922 -30633352 -49033136 -41986611 -9268463 11868812 12696990 388781
0.048000 -1249312 6930344 14871242 9452038 1371636 -365353 2532186 3659119
0.064000 780869 -1374316 -2702996 269497 1811087 -382860 -228796 -2157984
0.080000 -348689 -1444965 239530 123995 592362 1042223 2804567 4041170
0.096000 3561210 6279649 5704889 7040187 5153784 3194036 2108606 -743351
0.112000 -2986453 -5669532 -7758701 -10384496 -11555666 -7330839 -4527319 -2651479
0.128000 -4038315 -2763182 -659937 6163049 6885036 9485171 8293271 5066136
0.144000 5121166 1983995 2236738 2956514 4475574 -1836713 -6297004 -6669927
0.160000 -4127413 -2226589 -1095377 -1932935 -2511794 -2270580 -823649 -1808629
0.176000 1323786 1782518 1419552 2629604 1401968 -849255 -461127 -27929
0.192000 1160168 1591787 -1038034 -1163694 87866 -610977 356321 -217350
0.208000 -192994 535123 738694 -1486727 439563 464415 346703 -717365
0.224000 -1282142 -1469810 -1133267 779766 132849 343134 1061102 246287
0.240000 -1152427 -1556224 336766 -852303 -1245529 -1081082 435194 -2016673
0.256000 825500 682064 -383737 341977 1061925 -460664 672214 1539408
0.272000 463419 -324505 717530 644405 243781 -154778 -781653 -934797
0.288000 -1661002 410939 719833 1246219 -1551221 -711848 -1541404 -291240
0.304000 -153040 1503672 252254 891699 655206 -1182864 -622445 113127
0.320000 -192940 1086836 1610356 -385648 -920084 336729 1050121 -209459
0.336000 -310886 -282730 -297119 1766448 853998 714512 752180 -904580
0.352000 -167871 1040898 -1217905 245442 658619 -706972 -315086 -503997
0.368000 -984489 386738 414551 791461 -1157382 -720454 -89970 -305124
0.384000 257244 843425 -674719 523708 1911806 1815847 -503772 787235
0.400000 -602815 -638448 -737649 868966 1384221 -6205 -257204 341032
0.416000 115975 162740 -129079 -433745 324458 -268055 -116809 -822429
0.432000 -1322359 -249312 461528 1095320 116884 -1119850 -995053 439653
0.448000 -1043041 -2092191 -1342320 766040 -358320 -1626617 -22139 139720
0.464000 -334011 1866952 123512 351295 1038393 646778 1208725 955192
0.480000 973050 420490 1519643 -1334906 -1544912 -541327 -464647 1216032
0.496000 -392138 -774368 -134256 -1246894 -234882 609698 -1759736 1410535
0.512000 287968 -317440 815696 -484018 1534775 140897 1752503 534509
0.528000 757410 556749 1069056 -911455 -55540 -954360 1306720 982835
0.544000 -254517 1154615 406750 1767824 489085 746650 -865044 204731
0.560000 367199 -674283 1336224 1110482 732729 -652456 520805 -25995
0.576000 -395161 942449 -245323 -523801 1234739 228275 2447510 -11817
0.592000 -629382 -820791 868207 -12795 -70959 350930 -183292 -26276
0.608000 453107 210255 -144849 761352 269118 1111721 243362 -636789
0.624000 124915 -1444850 1445238 215397 -1085830 -125048 685107 -579779
0.640000 -513361 -676492 505340 -84538 -379806 -551199 878244 82544
0.656000 -1074302 368645 275904 383220 -482505 -999797 -42921 -216425
0.672000 -242419 1219778 451926 -238729 41853 298824 527275 267615
0.688000 30176 -1154039 -1042760 21310 -1011776 604312 -1132796 851414
0.704000 243311 -777181 331861 1092360 386864 553679 628587 688124
0.720000 -816183 -1242283 884533 -470509 1146798 -432696 1511720 554229
0.736000 28669 -1803484 -1336020 -202544 -47396 1196441 1484831 494808
0.752000 -507082 -1415374 962701 1761527 -748245 553748 1043598 -379760
0.768000 662605 -1090655 124631 -1478723 931123 -155210 144902 -148864
0.784000 1645256 -81968 109786 -1627838 -115831 584919 -671523 -696159
0.800000 -1668520 1540752 460504 1397256 -247223 701296 1328213 200722
0.816000 -731571 856243 -2365959 1437697 253195 -107784 -933098 150641
0.832000 840374 1120040 698734 -354807 -331356 -96753 211981 1075403
0.848000 357392 -547856 1147809 -228966 -1888195 -757556 -258378 -19330
0.864000 -213881 -1303424 -922457 -736219 -904964 -76851 697444 138829
0.880000 -480560 -1644372 -1106639 -384662 369068 -1053930 541600 -540308
0.896000 -115905 -236650 1403896 594190 1270546 -1161482 607173 93331
0.912000 724394 474204 -348491 908104 553296 31227 222116 -93310
0.928000 383214 -1341848 953751 -390998 1482009 1955973 -63159 320695
0.944000 -1162721 -699921 -179769 1286934 -1709779 1177908 -486365 -1931740
0.960000 -557590 32853 431491 1199680 -225837 585911 -473064 36447
0.976000 675626 590261 54969 -121856 1038288 1236320 572733 1160965
0.992000 589693 1323653 -53790 -864104 -445470 -1088734 -692701 179608
1.008000 -552374 672827 -582346 -2542209 -1092667 -1635 -884852 -892743
1.024000 588631 -594389 -23782 909767 1883 628699 632507 429353
1.040000 -409368 -1291663 449143 546365 -809607 -212237 228042 -448347
1.056000 216767 -254308 -1119282 226704 -56968 312752 810579 99490
1.072000 -1308457 556818 1701169 1496569 820540 307514 157982 1875642
1.088000 -745826 1392156 -1261930 355485 388727 -53359 1591348 643182
1.104000 1182767 708383 297931 -483522 -150786 151972 -36137 -461298
1.120000 -1212627 -571192 524317 177653 873569 -2171 -614729 686834
1.136000 -1589948 1257511 1090603 -774246 -765312 -65358 177763 -2221295
1.152000 172060 -942343 -1040103 949004 694189 1421731 -326681 -1709436
1.168000 -773336 2174196 -21651 972843 -1361820 312877 461814 560549
1.184000 -1274706 -1319815 -612394 742582 -866252 437564 -592858 460245
1.200000 1425167 -1801817 -1438624 2120891 1608953 701364 845687 833076
1.216000 1293701 594598 -81004 -906240 -273832 31125 54878 -1760049
1.232000 -219365 -10207 -1381643 920223 192872 -720126 -360365 305648
1.248000 -297067 -526766 27564 -838997 851974 1225708 -104697 136331
1.264000 125608 981797 -1440878 561020 86447 125978 1182922 926357
1.280000 1820097 1521686 29396 781459 -1271668 686743 232088 -145391
1.296000 247253 -121676 -893345 -1052761 -757187 1828181 760851 -755536
1.312000 -311636 -663130 931133 484295 785185 1555833 -1355264 1366954
1.328000 -739566 -679016 -442907 816412 78966 555563 238337 206835
1.344000 959188 35784 -901910 -83511 1127101 -514095 -971825 2312185
1.360000 533230 1664713 1710071 662423 -168395 1269407 528708 -499285
1.376000 589062 -1467001 203789 288811 1050183 -284956 -25227 -454223
1.392000 1933098 -124956 21682 691681 1508547 38511 -542774 -1187167
1.408000 -343023 758986 -241675 -667452 81656 1447467 1274002 -1429631
1.424000 349777 -1572130 445298 770716 923167 -1120121 -506454 -514595
1.440000 -495228 1147176 1056742 -1024801 424442 -251690 116377 1417029
1.456000 1357616 -739062 -1280964 -949311 -176321 -408469 1048884 636276
1.472000 -1049330 55647 188709 30288 262942 66055 -1557165 176891
1.488000 683268 250748 75480 812288 81149 1477564 843332 737723
1.504000 1271374 247671 -58280 -452112 -1318361 750827 -146442 -499525
1.520000 -749267 -460765 -380149 720388 -410405 -120223 561842 -107588
1.536000 -228278 -766001 -1859454 -336170 295273 -1018299 -643719 -767552
1.552000 -1331464 399070 -1147609 1113456 -853680 412305 1598439 1173293
1.568000 -1636728 440333 -14653 -1176904 -1873628 -1075620 -172804 -242615
1.584000 390876 -263895 -176830 -1115904 -1023578 43369 469882 497349
1.600000 -1197386 1026418 907335 1329407 -1651888 511587 -175725 892860
1.616000 619550 -535330 -648313 1016772 -10303 -368215 1827272 752565
1.632000 -640018 894474 -919734 278965 1513836 -536063 -102779 -718647
1.648000 665848 -653854 558516 -814821 94076 888897 137774 552467
1.664000 642166 -803305 -422708 -724220 -805522 1767366 -909811 204663
1.680000 -883258 -932172 -561774 -1139878 -646103 662728 -359407 630153
1.696000 1666601 1295481 -716944 1256252 -157160 -1133420 -675743 -203057
1.712000 -352914 -867063 -584644 23135 -318990 -859538 -1466668 1683749
1.728000 -247810 -911332 1473142 657976 -712405 744658 -1220584 -739915
1.744000 6829 193927 172588 1136788 -346508 -1921334 888602 1184043
1.760000 1608958 -444100 691038 -421763 477869 482120 1294928 185767
1.776000 -1390672 1151600 -505599 -154871 1495832 97455 -763915 717032
1.792000 -1664491 373546 -375320 166100 170137 -2113025 -117975 869051
1.808000 -751338 671722 -895173 1155714 736388 -1076145 -1024862 -329097
1.824000 240279 572922 -553009 -181778 126286 205263 -507959 -1923207
1.840000 -321418 450497 406712 -723994 -754654 -648899 -653894 -725656
1.856000 -926000 789165 -858408 -103214 -721349 165398 -42147 -841284
1.872000 642095 -18229 463664 -905938 -18901 -1670213 463834 1264838
1.888000 -209654 -516977 674443 1035073 -5803 -230018 1914813 -2079
1.904000 -746864 -895982 453107 817523 -728972 821459 749530 694292
1.920000 -201228 524642 1003774 771477 -1669848 226028 -989834 -410114
1.936000 -28207 -404954 429571 935596 672497 -704595 -563593 503329
1.952000 699429 1921733 893246 -529623 563713 162124 295300 -134316
1.968000 -979526 -1725408 -330255 -229631 -473578 -1036351 -79598 -563157
1.984000 -1459847 450376 -598974 1355798 713083 -692064 451202 187515
2.000000 -691107 840339 -105947 -743856 -536182 -592421 -1127246 -732059
2.016000 -484548 1486480 822410 -371790 145056 1121583 293950 665372
2.032000 379876 -25643 -1490536 869023 773243 -1411332 -1334234 -18912
2.048000 -1392191 -664972 914106 -1570017 -259998 -1549282 1565993 919359
2.064000 77429 604451 637530 -190799 -79572 422497 169295 1416935
2.080000 -20986 1445770 853137 -549677 -740065 2123078 -796198 -104148
2.096000 484823 -302035 394042 1122616 -1213686 172794 -567099 -1040590
2.112000 264190 153109 -704099 -626364 -710418 772754 682661 1653637
2.128000 -1074957 1001797 -822556 -415940 133104 1136398 1149108 -91335
2.144000 -646896 782864 -101101 628032 913397 -363978 -710964 -725648
2.160000 20825 561653 880106 -1497582 -353801 -52940 -1011483 -224628
2.176000 -277844 818320 1344650 362093 817010 201537 98760 21906
2.192000 -98605 793334 1129646 1114737 -747603 1468269 1695875 1564859
2.208000 1615297 182038 402022 -2558409 -536054 1212741 1036879 -1860844
2.224000 -1014199 -55946 -770051 778595 -229879 835795 -433011 342805
2.240000 -181822 -2322151 -13017 45997 278703 303550 658503 -741347
2.256000 -2682535 -713617 -950158 -115745 -745924 -533305 1362874 979004
2.272000 -286728 -19611 1213028 276098 -882959 748131 -411232 -488011
2.288000 -192161 -113959 1208318 -1169823 -272367 511251 808048 437506
2.304000 1046309 29199 294713 493060 -766588 924570 -646525 957622
2.320000 438227 167376 475324 355432 1864571 -596186 1611574 -326113
2.336000 -299195 167405 -93330 130065 1596509 90811 -708067 960485
2.352000 -131063 1582401 -137661 792334 -631969 -857803 -231417 -518842
2.368000 -326725 1106902 807680 610319 -161954 1190677 -1178181 615255
2.384000 907102 451024 880008 148732 1602863 -471512 1557040 -213730
2.400000 421591 -1612160 557569 -1099426 -595153 1323152 -266425 741595
2.416000 417023 -321995 -1186730 119577 -616435 -249096 22514 -673772
2.432000 1342789 1274783 -1803121 -395405 -2600761 501117 -517568 462211
2.448000 852488 -1827110 -570351 828171 1111460 -1641149 -170429 476638
2.464000 785617 -1373419 -834986 -952111 421955 146773 1017294 136006
2.480000 421047 67419 311067 -680594 1458739 914820 363278 -1448693
2.496000 -518164 383645 -2833115 -906961 -701358 -677829 -215375 563600
2.512000 -1571905 -655094 -1246909 426071 -1273157 214458 -711290 894139
2.528000 -206829 841763 604615 2119661 -1218009 392410 982676 259286
2.544000 -2343387 -21426 988263 634156 -709527 1102656 111287 -13348
2.560000 796358 217566 -376983 -442420 476543 142155 -312878 1849708
2.576000 -580422 -19396 676936 -880730 82224 -1472110 -1220389 -1044678
2.592000 -58845 -915225 421976 1357661 250459 -285385 -1056768 -130783
2.608000 -439201 -268579 -10357 -953654 -9243 -52121 211733 -294141
2.624000 717277 -786709 -43464 -136842 -35782 -1137815 940092 767079
2.640000 -554896 -963993 310263 -579772 -1238479 49251 1003617 -1197437
2.656000 351279 455296 -1603815 168475 -425082 -547271 -169370 -881355
2.672000 209687 -1156355 967151 -662662 -532440 -353156 -1628629 827555
2.688000 406300 271754 738079 -881744 -156728 -1305008 -368259 476303
2.704000 77007 160230 -60200 -105404 -657122 50787 -634755 586502
2.720000 -765079 345649 1232177 -453407 -84714 406854 -274093 -147498
2.736000 740802 -249826 -1687752 496263 -142358 -1244392 1025481 -820540
2.752000 96188 -331512 347489 -209529 -1297671 51951 47950 289804
2.768000 -865482 1190951 -423845 183291 304209 948087 110318 379059
2.784000 236915 2611383 530338 173996 -439543 -595722 -830562 763831
2.800000 -1326850 1030499 619464 911267 987625 74512 -670007 785162
2.816000 -1931372 -953068 -1397956 1349788 -851749 378738 392105 -635865
2.832000 86207 73955 360272 -579764 -857318 430113 414348 1885306
2.848000 52731 1472167 1214795 -186764 708452 23424 1488207 249077
2.864000 -418844 964853 644724 4570 710360 -1091181 -764389 -868387
2.880000 -834119 292895 -700001 -774632 -64634 -601069 -236 -1120269
2.896000 1363348 -1108469 5091 239450 295652 1111982 -1032167 -17542
2.912000 -984624 -177198 -544218 139509 -691896 789819 -570632 -121207
2.928000 1099938 1079237 -512559 259992 -257877 -145865 772466 749584
2.944000 902274 729741 -552714 705672 -1262451 -718760 644829 898280
2.960000 -381973 55706 322673 1304593 -251943 1034663 -490598 73515
2.976000 -208755 -889065 -23630 -1386769 -491743 707887 -716310 -454064
2.992000 -562046 317201 253161 692517 1315486 -696370 611063 252632
3.008000 -32925 535957 1300397 -1074774 1089680 -497848 -466587 49302
3.024000 -879394 -386269 1342041 691886 64659 197776 -639427 -542414
3.040000 866449 490013 -543820 -2175931 161091 690919 -371574 488650
3.056000 1851589 -1692490 -125229 1004180 80643 -596289 -456008 383618
3.072000 802638 406209 1271317 504565 633685 -1024764 -2673772 -597534
3.088000 148382 -842421 47576 -413445 872407 -227390 481471 515786
3.104000 -23562 291841 433615 1170554 805915 -84965 1080430 -1085583
3.120000 -720691 -196756 2362359 22060 -631611 -1214962 371410 376348
3.136000 1346869 635063 1634190 -89622 -1068088 -100920 796615 1577009
3.152000 -268640 5410 -1019356 1069082 -337906 179184 418333 1191950
3.168000 909857 1344510 -1539270 -504801 76022 40653 710913 -1531388
3.184000 -287150 -62102 896673 -1347919 -1063447 2481553 -99767 26583
3.200000 -200399 -326310 1623182 324758 943793 -1143365 60798 -1235702
3.216000 -1360190 279206 -1796081 821198 1126220 -273205 192839 -30156
3.232000 -762286 645864 -1526294 -1266066 364067 1056643 -248872 -769959
3.248000 -102999 563746 -221072 681016 224977 536666 -930390 -1329089
3.264000 -403351 293874 -121604 -440996 -698890 -529631 -549623 -284436
3.280000 -352501 935113 -951297 725789 -1253213 -644909 -419507 210796
3.296000 753953 114635 -1544990 -431829 195793 140251 261869 521943
3.312000 -632957 290604 -1246794 -576300 795734 -427677 -663105 995513
3.328000 252582 359130 153310 351662 -675289 73629 -643636 268464
3.344000 50543 -506332 481086 -68668 -360133 741046 1584226 39493
3.360000 385815 -351508 -16282 -45195 -526106 714248 -859034 -271253
3.376000 -1308604 1082741 -153518 -1286141 791239 -1563629 407780 -257798
3.392000 1492275 -1561955 1119261 19510 467272 -137405 1104804 -1495965
3.408000 -249443 -948959 -1372895 856094 1103489 857842 -18210 959429
3.424000 -553716 1092598 140654 1020303 251518 -329503 -104072 -1795030
3.440000 -1055471 133369 -1551850 840580 649698 -1381278 -308879 -181214
3.456000 2192850 146207 733578 -333527 118512 -142498 -794209 1738520
3.472000 436722 484726 291743 -2298095 603160 269111 -1358375 182398
3.488000 -305717 361984 10508 -2223197 993514 1299255 1302699 -1446879
3.504000 -2267391 -201608 -909936 -1073549 769685 -208577 1030006 -341964
3.520000 -1243010 1018449 447293 1771662 -224766 -526130 888764 -146965
3.536000 -1617811 -2247 743531 1223028 -1006349 1541360 -216030 1551745
3.552000 -13221 1431955 393920 -266337 1700886 1307958 664667 992969
3.568000 420587 739329 497363 -661522 100899 -252453 -1103265 -840649
3.584000 700383 -373983 -565062 526931 685181 -805731 62841 -270090
3.600000 535485 -649949 -1122661 478010 -577726 -1349877 615081 679192
3.616000 -392890 413577 182588 -596410 309502 179283 -643372 -24311
3.632000 423999 -190227 706725 762116 62394 -319513 280992 165578
3.648000 -1099858 82835 -759422 372146 997 -1004361 1237764 -484399
3.664000 131690 23771 122411 -1656536 38866 -88768 1055603 -960410
3.680000 -1034563 1377638 -59178 296076 -329075 799742 202758 697813
3.696000 -425623 -396876 1827545 -1893613 636656 -522327 1112192 197909
3.712000 1138796 440425 -428648 250040 -128902 -41420 -432623 92503
3.728000 -253841 -2138542 -300670 313048 1381737 570904 -906658 2019836
3.744000 254796 -2124229 576977 384767 183653 173253 -330066 -1067113
3.760000 1810772 833102 -1057099 -210549 460582 168264 934084 311520
3.776000 597005 2419606 -1174637 -519062 1423647 -248590 773144 289767
3.792000 1155165 366531 -246268 -1034464 -794023 190715 -256198 580296
3.808000 -360163 471043 547129 287296 183902 150007 -820092 446892
3.824000 -223315 634814 1117063 -492733 1738496 271783 -101068 116375
3.840000 -197365 841660 1180015 150922 278212 -845156 -21597 2096529
3.856000 -937295 -74588 1163891 -1502500 -298876 702409 1031981 -211575
3.872000 488238 824511 -612973 -752744 146990 -275583 -293100 -11178
3.888000 -852871 1822892 -1411608 -75757 1343532 674369 -366893 563664
3.904000 1477067 -1749592 -148067 262426 1626159 -898025 -92398 762292
3.920000 -29130 -38502 -235058 468780 -1803835 -568058 537882 282363
3.936000 -884173 -789007 489962 -868306 766835 1885198 1977668 1786537
3.952000 -1573440 1603501 -348322 -652254 -1145063 -493564 467519 895898
3.968000 837039 -542897 -98723 -502745 -256742 -638433 -887049 -521786
3.984000 104529 -1077651 288626 269898 1214317 -1220260 -1362337 -1751534
4.000000 -582752 -558001 512175 582759 -883553 -819364 461522 -433628
4.016000 -104981 -542818 1600413 758985 112707 1028592 661966 -802730
4.032000 703158 -563233 -522652 -780760 1198561 -1296468 -365816 -692096
4.048000 169261 -1353333 62870 1582090 76326 247556 383873 -248749
4.064000 872672 604635 -950714 443722 -1707730 346671 -1391281 1327674
4.080000 466178 -1047049 -168360 1404787 -1073492 -1441604 1503085 -778045
##END NTUPLES= NMR FID
##END=
