##TITLE= Ethanol in DMSO-d6, 21.7 MHz, LW 4.34 Hz = 0.200 ppm
##JCAMP-DX= 5.01
##DATA TYPE= NMR FID
##DATA CLASS= NTUPLES
##ORIGIN= DIY-NMR Model 3 (simulated)
##OWNER= NMR3 project
##LONGDATE= 2026-09-04
##SPECTROMETER/DATA SYSTEM= DIY-NMR Model 3 / synthetic
##.OBSERVE FREQUENCY= 21.70000000
##.OBSERVE NUCLEUS= ^1H
##.ACQUISITION MODE= SIMULTANEOUS
##.AVERAGES= 2000
##.DIGITISER RES= 20
##.ZERO FILL= 0
##.SOLVENT NAME= DMSO-D6
##SAMPLE DESCRIPTION= synthetic, common time-domain noise, LW 4.34 Hz
##$BF1= 21.70000000
##$SFO1= 21.70000000
##$SF= 21.70000000
##$O1= 0.0000
##$SW_h= 500.0000
##$SW= 23.041475
##$TD= 4096
##$NUC1= <1H>
##$AQ_mod= 3
##$DIGMOD= 0
##$DSPFVS= 0
##$DECIM= 1
##$GRPDLY= 0
##$NS= 2000
##$TE= 318.0
##$PULPROG= <zg>
##$BYTORDA= 0
##NTUPLES= NMR FID
##VAR_NAME= TIME, SPECTRUM/REAL, SPECTRUM/IMAG, PAGE NUMBER
##SYMBOL= X, R, I, N
##VAR_TYPE= INDEPENDENT, DEPENDENT, DEPENDENT, PAGE
##VAR_FORM= AFFN, AFFN, AFFN, AFFN
##VAR_DIM= 2048, 2048, 2048, 2
##UNITS= SECONDS, ARBITRARY UNITS, ARBITRARY UNITS, 
##FIRST= 0, 5.9986413, -0.018272255, 1
##LAST= 4.09400000, 0.0030345228, -0.0041704492, 2
##MIN= 0, -2.1961701, -1.517429, 1
##MAX= 4.09400000, 5.9986413, 3.8606744, 2
##FACTOR= 1, 2.234668027e-08, 2.234668027e-08, 1
##PAGE= N=1
##DATA TABLE= (X++(R..R)), XYDATA
0.000000 268435456 188363880 48099440 -29088293 -3513164 50373467 44695416 -11461580
0.016000 -70436030 -94572261 -98277241 -95955993 -81828813 -43424126 -5099884 3043441
0.032000 -17416885 -27766680 -2834989 39364562 55303314 35841342 8307322 4480396
0.048000 15042384 19181622 5075403 -6724834 -7539731 1132490 3971782 210704
0.064000 -6109197 -4853589 2727333 3143312 -972513 -1560592 -2231101 379974
0.080000 2018988 2588445 1117917 2069233 4370693 5229516 5727844 3553059
0.096000 2941586 36984 -2768785 -7632444 -10838837 -13144879 -15714997 -13494776
0.112000 -17194058 -15555024 -12096987 -2583981 4594334 9918195 13661576 14046142
0.128000 14076749 21188146 23766039 23131396 16609833 7741390 -1919500 -8388712
0.144000 -10587047 -6255938 -3676904 -9465649 -21737651 -28809425 -19246963 -4732872
0.160000 3266303 2204684 -804235 -804634 4939745 7867441 7969781 7710224
0.176000 7203438 6423616 6449768 -1327696 -3078877 -1193491 2846114 2795783
0.192000 -2068265 -5717640 -1812668 2076856 2519335 -1872199 -980382 -303221
0.208000 2004518 2641432 -622808 -2726238 -3413498 2105543 988309 -1533090
0.224000 -2632321 -186008 1219861 327775 -1102944 -2707193 -2937532 522632
0.240000 -1307858 -3584533 -4380496 -165360 631646 1913131 -113594 160219
0.256000 2116145 2739444 3538755 4130888 331300 2807684 313185 81
0.272000 -681477 -504875 -1235102 -3031436 -4681594 -4282277 -2668708 -1713299
0.288000 -2202827 798959 -902572 -115022 1690340 1295221 1995135 1165216
0.304000 1904799 171552 1859521 1133225 833893 680537 -151724 97265
0.320000 -254926 -1489594 -1568669 746640 95866 73477 -1531661 908639
0.336000 37711 671408 222389 106813 998460 577780 85059 -719122
0.352000 -2132356 720861 943260 -952042 -596055 -368989 43841 -364808
0.368000 944640 782759 -253774 -81614 -177120 1330718 1457583 -2070557
0.384000 950155 -592623 1682206 -614689 1590800 -638639 -8661 1118055
0.400000 640150 164871 -342936 448665 -470810 975989 793721 -748962
0.416000 -296597 140495 -864394 -184966 100369 -1479694 1197500 1609645
0.432000 73635 -1138305 -492774 -651434 -761634 392251 18902 -187159
0.448000 241571 -582737 278981 73875 -1486420 -352346 -1304389 -631669
0.464000 -1455788 -310076 -135982 283733 1738587 645269 -756980 -919503
0.480000 365344 355380 1271189 1772962 -294844 1333395 -117626 -53538
0.496000 -153437 -880733 17066 1079243 617747 -244789 -631086 150836
0.512000 1210397 1974348 -698047 -440754 -659579 1027055 -1127088 -421890
0.528000 78628 -29001 -425492 -321104 286881 1621311 1093090 602094
0.544000 853866 -188851 278748 467748 -1098564 689379 -365831 -815023
0.560000 449389 -582560 -406035 -305261 1026846 850050 -17534 21350
0.576000 -47825 306426 664317 261848 -42938 46452 -883939 90136
0.592000 406880 454255 783647 539538 8707 -2175060 78693 966329
0.608000 225723 -405568 617520 997001 593689 274414 -1064269 -1641590
0.624000 54833 238423 438343 235886 203401 -21554 -850081 -275705
0.640000 -396007 1415939 1341483 1065178 419648 564381 57721 -555398
0.656000 -1034986 -164254 127992 -657337 716879 322204 -729443 -1350273
0.672000 1131318 -535864 -283662 -456406 818666 -779290 883056 -1085064
0.688000 1612106 1085763 1089130 613468 1234048 1716196 -502463 -349053
0.704000 189511 -120105 -238105 236776 801574 -797537 206844 -1674646
0.720000 2734765 1354932 260962 -520913 -49749 205766 464582 -87983
0.736000 -1060663 438655 -675836 -157771 1161070 -444 145158 594117
0.752000 -920480 -289239 731991 146675 -1103148 -1831928 -521047 1399184
0.768000 -1264156 253101 1126483 -263334 -270463 473965 -265520 -1576400
0.784000 609031 366381 99258 309334 -727455 1031545 293737 503832
0.800000 -264954 1034652 -1305039 1238866 190561 688041 -217185 -57066
0.816000 687091 -556149 1435450 1090935 990337 54477 919594 -401410
0.832000 32769 -519447 844156 -746014 -533222 7215 412118 625635
0.848000 -646468 -476085 -302670 996789 -88030 -1037544 -178901 -296138
0.864000 -65138 508770 479668 138672 -581496 352699 -1303997 213781
0.880000 989623 1406657 -1047079 -543495 -108377 -657066 -838839 1008365
0.896000 -1582809 383817 -782985 -256198 -260701 1404420 1638373 -590928
0.912000 -649363 346288 1192286 26556 476300 -1136181 -1028200 749414
0.928000 -31133 242147 434089 55625 -1503937 301259 -1179007 -464634
0.944000 2157185 1014614 1030021 2001472 27886 462837 -164687 -452938
0.960000 -201359 194970 -850778 143390 -237361 -573230 -642318 431932
0.976000 -377569 -1206240 239790 1498045 -538716 -349835 -15112 -421327
0.992000 864755 472155 -428108 -300136 14050 -827698 328177 -239750
1.008000 -310796 -750820 1158480 -1071153 501641 -95530 1095230 182011
1.024000 20833 -1060715 -585481 -1466182 1219038 -173331 -523090 -517142
1.040000 581208 733561 1010170 -964398 272401 -1646674 -616568 -30720
1.056000 -1707360 -364150 196151 -948056 1206962 -866458 -1039335 -570140
1.072000 1144457 -675565 773707 1275462 -615330 1200290 375272 -214711
1.088000 1657231 922219 -649407 374252 1722517 1275468 1650692 -1424674
1.104000 -477510 -648175 493005 33823 -7186 188199 -1953 945450
1.120000 -750391 364871 2633 730624 5015 426852 -782619 -402316
1.136000 99932 930771 568126 858087 -606509 -562768 -93208 754929
1.152000 232510 -1622290 1075892 -987497 1051436 202624 -821809 1149435
1.168000 -17272 241326 430138 184825 -1156406 -633285 -140617 -515631
1.184000 -1401997 813080 -1687020 -647558 466559 1061164 353985 264862
1.200000 -321365 483657 -975715 535055 898675 1346105 378597 -1295795
1.216000 246358 -322035 1566075 1045224 492271 40664 1696702 -304848
1.232000 525280 442380 375276 -174101 689333 224793 398686 -1519086
1.248000 -335345 -1193715 -749373 -352339 -1116004 601906 503601 -515684
1.264000 -105597 -1486658 -1109811 -489533 -1204244 -402215 -1329334 -430075
1.280000 14332 -397164 1148297 609004 1315514 -27383 405564 -485439
1.296000 -1036466 -312751 -449453 -754264 282103 -916912 1032282 332000
1.312000 86893 -538090 477014 -643059 -1786787 213013 -578055 -1216414
1.328000 -567872 141257 -1001731 -626694 -102926 549722 368503 1452724
1.344000 189814 -320893 -1661652 -1049382 842387 -1278720 -251766 1371279
1.360000 -195264 -154817 -734940 -197788 -1488011 -248846 -165219 -502105
1.376000 962572 1236434 1475205 401313 578470 1624459 577319 -962663
1.392000 175678 -1379182 33328 -133533 -1553138 -1380163 1413086 -738065
1.408000 14543 490663 562465 7518 389264 790158 -194606 115861
1.424000 -1322912 -683500 -284063 -976678 452696 -1545891 -341334 337721
1.440000 9378 206981 354234 -6895 -736781 4691 -1543801 58734
1.456000 1083729 -445294 -158857 1388044 -644935 -1869923 -112739 636737
1.472000 -1207792 -33121 711516 -647581 -1469389 158946 -752619 366240
1.488000 685682 265675 -526166 232496 305202 36407 -802438 -668458
1.504000 2093044 1548359 1720487 -260983 1219418 64527 908097 38669
1.520000 -1363314 -177343 579615 857528 -370271 884111 1571712 -81274
1.536000 -281201 607866 -1691328 284660 503364 -700102 662928 53871
1.552000 -649333 -554911 1532473 666268 -594735 597684 -606125 715048
1.568000 -897378 -228808 478243 -231824 -367738 -800470 1005397 702360
1.584000 -601101 537929 953265 599375 303059 -284098 -1035910 393497
1.600000 912869 1209154 1804998 -676282 496176 427968 -507980 614538
1.616000 -715655 -950110 -2271569 848031 -959416 -707310 372752 -1434639
1.632000 -1189279 -1074863 -1132149 1426248 -746733 71656 616550 -952991
1.648000 -348415 -129219 862781 -28819 -1366368 313279 -739450 576106
1.664000 -866145 -1645408 -527808 132941 849729 -2446191 -270897 1700318
1.680000 1427721 1586015 -65217 486739 -326971 -1261749 -1151836 353222
1.696000 -1597678 -135749 -235306 -648137 -738996 -390394 -784068 818822
1.712000 -187258 1127479 181059 -1434713 -695441 153685 98544 710674
1.728000 431534 -981041 1002725 828411 -165775 -1557094 899694 302467
1.744000 -119192 -189410 1113359 352407 -447784 -753316 190189 -1085278
1.760000 1364731 187476 -331361 1376867 -922006 1048598 1415707 467283
1.776000 807717 -397876 -1038109 765966 -1256567 -68185 714829 -719537
1.792000 -440201 -2019307 105860 605422 -162882 -18370 -246630 71178
1.808000 -809288 1084828 127162 -1021937 -127082 866264 928446 -719255
1.824000 95281 1793661 1196777 -182124 961799 -775297 -229570 297563
1.840000 2162325 213749 -465668 -290226 -434247 2877328 1322011 253282
1.856000 -814676 -2986 -1307171 -207702 14609 -678742 -485830 1209114
1.872000 -157434 814437 279454 1129782 530240 -2624923 -1843045 -1664963
1.888000 -109574 187169 -117107 270237 162989 681927 -576804 -1383228
1.904000 -484562 269664 1036531 -1180478 1555509 762977 -699880 54052
1.920000 -1607237 340636 -767984 -928368 1390426 1735154 45531 -992482
1.936000 -58986 68544 -1124015 -1806586 -387375 -189024 -345635 215753
1.952000 146397 -1027125 1593095 823158 1150827 -1106501 -1072128 -128952
1.968000 19430 -1836768 914922 1662548 365977 821837 -936907 -624874
1.984000 443760 -707886 1048544 660126 -57848 -1169859 847424 -949866
2.000000 -673882 -79203 -227437 -911800 -1316170 1390842 1132318 -166118
2.016000 50823 -5576 -1165496 543477 492142 -30034 1051870 -456523
2.032000 -1791748 -1436595 464370 -1073000 764540 113791 -112860 772768
2.048000 -564318 -1096848 769761 1873631 -920109 -706227 482714 237872
2.064000 -67384 -793583 5381 644296 -14379 -337346 1920976 -100694
2.080000 -355973 -1057145 335316 -234491 -79058 -342999 -1258034 1331686
2.096000 -188906 2380420 -982144 523674 219695 -6070 -190749 -373452
2.112000 895500 518452 -304275 261294 -5868 435456 -79223 -924605
2.128000 -1867871 -1144724 -634960 -906980 12429 -1974387 -1535679 197058
2.144000 -805487 -103092 212572 1814808 393849 -1042822 37598 -996175
2.160000 190533 258075 -797695 -484641 -562875 204942 -577738 -507176
2.176000 -2058649 230666 -550214 1697821 -1154542 -612154 1419046 603127
2.192000 1197911 1113429 450452 -735521 540935 2445321 -85671 1301869
2.208000 1563641 -582898 -2269224 1615245 359268 908623 -234904 206675
2.224000 1446436 601552 680689 -1159574 1069499 543692 -266854 -313845
2.240000 103495 -833905 -708163 -22799 -6669 606712 67134 -820331
2.256000 1255182 -89288 375970 607541 -1269648 -2014566 127037 -414257
2.272000 -955909 -455754 -829514 -1266659 -958413 448438 1053815 -1652592
2.288000 -686739 822515 143076 -851983 -865927 1305747 -218055 1008890
2.304000 -317021 -600659 -1421810 -350960 577862 418306 -356170 708762
2.320000 607921 148902 1103517 -930780 2578779 948239 238788 1017210
2.336000 310674 -1075157 520919 499701 -975382 -142027 765310 381909
2.352000 -998014 -159091 5997 991554 -71538 -466551 -2369114 341205
2.368000 468432 -114206 745249 1376317 190057 37951 -345746 -1138449
2.384000 1104052 -362810 -281493 710410 -506069 -2205010 534949 1626998
2.400000 -453283 -218559 321366 868141 -363864 695869 -476524 -552663
2.416000 -937103 50024 346946 -527442 593689 -1332141 -668458 1103558
2.432000 1111012 1380481 248582 -1529269 418476 164674 -913448 -423566
2.448000 929194 134377 235722 -1032915 723473 581503 631592 845901
2.464000 -168831 -47211 -1092771 -1623679 -398414 -1291533 529425 -263443
2.480000 -191193 -463178 -340521 1540935 -371386 125393 -421675 -351414
2.496000 -2073855 150408 -823283 1711711 -1213703 -1110520 -776117 -382276
2.512000 -233449 -256328 2058008 2447944 -756101 970028 547222 1153841
2.528000 -118867 1436502 986856 1039680 -1452277 -470190 441573 1734268
2.544000 -1041709 -842132 337301 -1457329 -1697039 588682 -888678 84176
2.560000 431139 458295 763451 -1467205 -15814 842176 703541 2143493
2.576000 -131699 -22612 566704 499031 584096 253765 557590 1358418
2.592000 -163535 -427070 -248278 1494482 -845844 1599999 894660 481443
2.608000 329338 -2212809 -392031 1163439 -1879472 32905 78713 -471993
2.624000 -63014 2423778 -246283 -1135061 -130744 570970 503 337423
2.640000 436171 524937 -711774 -154541 -342846 -269088 697242 614509
2.656000 1774876 -1375786 -858203 -601752 112403 -44660 87404 -293754
2.672000 -430633 340357 711592 566339 446975 -66987 604246 -921873
2.688000 193454 364251 118641 1493594 -415065 893976 1662874 1077538
2.704000 -593584 -1846422 27150 -104585 -433354 553198 601798 -1003367
2.720000 -986399 490297 -400214 -847179 176107 1155741 -386426 -339877
2.736000 -1054032 1284405 -913428 1037502 -377300 -934946 806485 -656286
2.752000 1135526 398360 690674 -1437295 -531822 -834522 -831219 -1257970
2.768000 -501843 -209660 482652 -381816 121915 266390 -209466 -1128173
2.784000 1068033 1184314 1155124 -287222 1166173 -354121 479476 -862703
2.800000 -15252 -678247 -555361 -432485 -1046897 -511757 1161253 2096242
2.816000 1815465 69947 -1461526 -204568 519635 793908 1475995 289467
2.832000 -326567 1036587 -1064371 564593 -813544 -777333 258178 859882
2.848000 -1441667 1298489 -1339284 1469424 -167914 636342 -706755 489
2.864000 -408500 -741412 -892883 -1157019 -461910 569613 -289538 771839
2.880000 1921791 467426 66422 764357 -689912 -658754 1544742 54936
2.896000 820970 -599516 -1205887 -393631 -1603527 -1146267 884430 988508
2.912000 -1957956 -1968932 1566214 -324848 -327936 126097 -489102 -1267547
2.928000 378683 1107310 1356408 -194819 -135599 -449352 346639 1351020
2.944000 199099 796966 -239925 -87449 119146 -2118320 1155665 646691
2.960000 1535333 2201819 471296 667114 1143637 -887796 66349 1244122
2.976000 174988 729728 1266281 933078 -851685 -566820 650869 -803766
2.992000 825655 -143132 -488997 -225118 1907564 -40751 -68507 45022
3.008000 -1938129 -108787 125458 -194216 709138 1321713 115181 -33925
3.024000 -1502163 2069025 852063 -661457 -48031 -32098 16345 -497986
3.040000 -163596 -177277 -118216 -127023 249559 117113 -1937089 959762
3.056000 -19701 -454166 -647065 1412520 -533856 -435724 -762789 902609
3.072000 711727 677759 341247 1743903 512028 679939 657515 -639276
3.088000 -1148487 648701 -106007 -559577 537069 -835163 167449 3697
3.104000 -2807 287201 -357314 952719 -865424 -394345 -1205244 -206812
3.120000 966449 740812 71096 -721169 707723 -110944 200121 -132235
3.136000 1011556 -130536 -229844 -187423 -2298242 -1161685 -205210 -505883
3.152000 779333 307023 863914 651156 357909 896197 -193246 -1133436
3.168000 589483 1817445 -704728 -213194 311530 -813032 249271 1607091
3.184000 274600 -646835 736662 629049 956494 811161 462374 91204
3.200000 -1089447 -308213 -543349 1104532 596466 16951 404617 308712
3.216000 203728 -8527 1194964 421989 -77272 -990970 -1171359 -437662
3.232000 622355 -355187 1286117 -16477 1060584 -970882 -295460 1002915
3.248000 -755794 73069 33973 147820 1212219 -548445 -393644 804398
3.264000 -1724902 -1278412 -834863 842960 918451 -2089855 -813591 190393
3.280000 -332024 1516395 770273 -397371 -26908 -1019467 -1132095 -420153
3.296000 -772392 1658034 -1613286 417600 -1465110 418630 -821481 132350
3.312000 336593 -1360773 1026324 -947090 285071 -455758 1181974 1542401
3.328000 1021083 12538 693750 642064 -242722 -1416891 181647 -854039
3.344000 355761 -294801 -717492 287520 -718669 -1284533 -1213638 150921
3.360000 938405 308481 303353 1051894 134264 804182 -646088 -305816
3.376000 -50199 731258 -552242 -608826 297934 72802 322902 1436819
3.392000 298101 493752 -943739 416373 -88434 -1107873 416681 589683
3.408000 371744 77689 -25530 -1031620 -727272 1303970 168578 -469522
3.424000 1002240 350544 1279404 -740631 -8110 137409 2235084 1824803
3.440000 1425286 1579261 1056362 1422181 864572 -796283 372731 -386266
3.456000 1765520 414785 -331903 472195 -123224 926777 67421 104961
3.472000 2102852 -811016 -92343 115626 93292 1019172 -298769 -409959
3.488000 139103 485300 -166015 -977807 1344734 -126610 951802 -741394
3.504000 807501 -415604 -1424462 -87645 352697 -1362775 599446 315773
3.520000 160966 -382029 504046 -571443 -424160 54617 -17491 177191
3.536000 591014 -724198 -1189384 1505903 -477456 189172 -743483 -1083951
3.552000 -1442571 -1142186 -409940 -94287 167343 -2674255 -1011368 -884911
3.568000 66385 -525658 1296353 -256009 -1089596 -1027671 -663596 286522
3.584000 -787119 2120026 -1602636 90910 451422 831210 -818141 556970
3.600000 881384 -300727 -683239 -207529 -774535 1094350 727418 202056
3.616000 -1788792 186876 -548425 -938655 1496531 -832403 -1068987 1231750
3.632000 858282 -571126 829497 -461912 -347978 259186 387788 316797
3.648000 -177635 -982766 -789405 848707 -215061 1354131 -76266 1020820
3.664000 151751 -256084 1122902 -244697 119690 632928 -630846 -71602
3.680000 1031356 488554 178055 -1330763 -431730 378543 786020 768290
3.696000 -718268 189179 -470123 -807140 -964121 -692315 -289692 -1170072
3.712000 105320 293248 938845 200648 -1931556 1748821 46550 1728648
3.728000 -611501 272339 594834 -488900 -1618223 -436909 -672263 1634385
3.744000 -1179227 635037 -672011 1129262 -1162965 -125144 388434 437792
3.760000 537484 444580 34223 946498 616508 -374004 -530433 -809758
3.776000 -474785 -995540 25433 -757315 -1610637 916929 1252488 -221280
3.792000 -54449 -124330 -112007 -1348805 -374083 -1157150 -978950 624834
3.808000 633126 -20561 -890659 587816 1428358 -1590820 -1439703 -1735996
3.824000 -1175866 1318888 -215757 -169936 843719 1855456 967138 -341820
3.840000 645186 -176348 178679 -434988 -97511 -740305 616861 451557
3.856000 -1137018 95160 -989420 -184445 1257432 -696340 -865409 46228
3.872000 -365333 -88506 -128269 1015661 -2008918 -38960 -285891 125804
3.888000 755082 934672 -231019 -745908 677510 -108604 -258517 1247512
3.904000 879054 -171439 -643345 1537012 -1615846 721515 -1349556 -1294616
3.920000 177341 1144832 1446995 417286 212741 -244176 1697825 1138132
3.936000 950772 79614 -105565 1071154 -476658 652040 -184654 870679
3.952000 45848 22447 471230 1208547 1374940 -187129 -788548 -1464685
3.968000 203821 -723028 -784612 20989 -211290 -1435874 -434920 -856424
3.984000 516871 -761021 -1073994 1113184 -691913 753807 -1180714 138391
4.000000 822067 -839808 1862817 808188 -187201 -798239 63493 186169
4.016000 688149 55347 428458 332947 1362933 436186 946889 -595691
4.032000 1766068 -411853 1340882 -1045814 1473116 368581 576796 -1352733
4.048000 -744346 59807 -1972714 615482 -695846 -290841 387791 71425
4.064000 -748585 393928 2263405 390957 -490604 -2298568 -62585 -293480
4.080000 -258454 1381522 307704 496211 389623 -1236583 908772 135793
##PAGE= N=2
##DATA TABLE= (X++(I..I)), XYDATA
0.000000 -817672 148963960 172762770 94534514 26028311 39807271 99450893 126719617
0.016000 103855739 61076032 25657404 -7939479 -46499744 -67903999 -55313789 -23854336
0.032000 -15497731 -38472139 -65018057 -54878118 -14320534 16619234 15981329 -189560
0.048000 -2128160 9821605 20250506 11829003 1266741 -3639511 2729824 7795028
0.064000 2830934 -1990441 -2704316 -105571 3133981 1197966 -1365773 -1519990
0.080000 -203440 1319892 -936508 -368273 433431 2306394 5949599 6207635
0.096000 8064822 10317460 10059886 9732526 9339616 6597816 986378 -2261339
0.112000 -6585610 -11848743 -19270125 -23312855 -21311055 -14412099 -9812024 -10855242
0.128000 -12400755 -5990715 1933430 11305647 18957181 23311180 23492146 16403829
0.144000 10244425 7524728 11102850 13952958 10064295 -3957811 -17069524 -18917880
0.160000 -12504712 -6199748 -4593762 -9572135 -11883528 -8041913 -1272752 1914197
0.176000 1318480 3404782 5135215 6745373 3786382 -1336775 2736297 5483115
0.192000 4758796 1679765 -4054877 -1051987 1286823 1720433 -805896 -2073700
0.208000 -2136245 1593944 3980073 40291 -3056233 -1252767 1394729 3050980
0.224000 -1650641 -1043070 -887252 2072902 2158198 1124469 1160128 -685734
0.240000 610582 906330 -1806202 -2505213 -2463936 -171928 -627013 -406877
0.256000 -2571568 -3069423 -1264369 -246750 1326016 2111693 1885225 3475176
0.272000 1211642 4001106 3434483 1709024 2982784 957648 -120610 -662038
0.288000 -284151 -213094 -2536521 -2722271 -2296608 -2104134 -495780 -2176050
0.304000 658035 -954759 1065414 24425 1928822 1657673 1475886 2250493
0.320000 91394 783080 -74673 -485657 29451 1355148 47639 -1116852
0.336000 721199 -1260336 -570834 2721330 -123361 -1141016 -1505273 -1002045
0.352000 1065962 91735 643844 338580 944286 959094 910174 -187683
0.368000 260659 1542165 -1351274 -402682 429258 -1768973 966131 -365249
0.384000 -238744 -304753 -1885460 948314 625842 836998 -966618 797892
0.400000 500708 1236857 785426 -668191 -274807 1433970 1346943 -1490986
0.416000 -597405 -469125 -1080272 270159 -1758339 49027 -134751 -270044
0.432000 138172 575351 -1005550 658070 1217093 162892 286046 1480
0.448000 -477523 661525 1110534 -44355 389965 -911615 203558 484543
0.464000 1951063 -1227158 478500 -1470669 -405547 -2185384 107854 -522661
0.480000 -1655240 -514110 1153054 771125 917643 -218363 529035 581622
0.496000 216082 -357711 -38528 1148828 391320 -843058 538782 -1098356
0.512000 -56233 1120489 1769421 -279514 -353601 980606 -199557 -163535
0.528000 955485 -211647 -316429 -877201 -335504 -712099 448527 527163
0.544000 1783648 -41823 334359 365518 699485 427380 913633 486226
0.560000 -402015 89246 -214468 629485 202002 -638655 -1453635 1712727
0.576000 -1048320 -415972 480154 475004 431767 304673 -189519 -439970
0.592000 -1308497 -6354 1151465 -1284444 519155 -219908 -308414 299717
0.608000 -468666 -994099 -766976 -732459 256849 -12766 757143 -64350
0.624000 31357 -655977 163363 -247491 -1527814 -1117043 -628145 239388
0.640000 -1490628 -159945 -733411 457011 -697366 436313 936127 -860595
0.656000 713689 38244 1168922 552376 -552727 2194633 326349 -128222
0.672000 1876583 -304400 -751479 -834004 719636 1756549 573564 193110
0.688000 -738018 197515 -1013698 -666766 -1403533 -13631 1194405 150639
0.704000 847181 -791682 -967073 1473917 -70184 -896538 -976041 1172729
0.720000 -219067 553219 -588419 349033 759184 -864466 -1339287 -1329441
0.736000 1003228 289430 -1695565 1279243 1064265 574424 -51902 -468862
0.752000 -846906 -75263 -927957 292517 117952 -487355 -570346 1391749
0.768000 926895 1337009 709435 733607 727161 -170612 1020253 402543
0.784000 798847 539155 -1352709 1486672 169386 92802 94452 -1252015
0.800000 -721570 448005 591055 1158854 1054976 -421398 117996 -700022
0.816000 522121 550082 -1173303 -560704 626392 -72247 845067 -787590
0.832000 646626 -559966 -726375 1576328 581918 51428 733024 835877
0.848000 684666 235783 -933275 412023 1612844 319774 -363861 -1492189
0.864000 1588880 -1045905 -265639 716394 -364684 -138308 330020 -1347667
0.880000 168416 383665 449734 -752767 871368 737117 -1551785 -1054473
0.896000 509184 -220817 141015 -153664 -1675235 -800244 -80515 1058849
0.912000 201418 1415037 184188 1271455 425827 391459 934217 -311991
0.928000 -628938 508535 -308791 -1969691 -730904 -1674212 -408881 -1196224
0.944000 -1230456 -853148 4939 378723 1352958 91431 953698 2068582
0.960000 231474 -416129 -1206286 566653 -1087026 -459800 141941 -760447
0.976000 -840393 977475 -732478 844604 1816379 287327 -176964 -11138
0.992000 132482 1179040 -1483561 629599 1031651 -1378199 -1744798 1018198
1.008000 500193 333344 -780223 -114885 1483234 -66376 417317 321394
1.024000 -1780956 2026023 -1102956 -818263 135462 -690234 -219187 -712831
1.040000 -151479 -758860 -1330306 -167395 -16473 1021006 -1691372 -1215828
1.056000 -706974 1003656 1049191 335975 1031036 247700 -169929 374326
1.072000 -331791 -1013346 -130008 -1137891 1384810 -667710 857584 1235804
1.088000 720514 241055 -224896 -350224 -210837 -522338 -1337997 -1144142
1.104000 -824603 746251 1302895 1326770 -1636520 766430 2762553 19367
1.120000 871597 -943202 -1026932 -839783 543009 -311211 79570 -602206
1.136000 773988 -682355 -396556 -899013 1370486 553124 -96116 -679536
1.152000 -1434662 1130084 -792229 300422 -1581380 -1646936 -1125470 -510417
1.168000 -375599 194487 587655 62503 -225613 693892 -443067 938941
1.184000 -1131639 951142 102938 -320391 -960178 -523431 -535087 -9194
1.200000 -888942 -776499 206617 -663948 -490958 1351997 -727051 113266
1.216000 -716716 907963 305402 620318 -1531958 -553528 -766577 -904198
1.232000 223357 -1343241 354316 124686 -1789470 -34867 -208793 766149
1.248000 -1123670 561031 -1164798 -764004 1176541 987461 -1387819 -353009
1.264000 -924293 572456 -403931 -788751 -16007 682508 1198234 -1289218
1.280000 -1121084 -947719 221011 1083519 163425 1750290 -1268483 -705600
1.296000 -20570 -165546 1245126 -7649 -325069 91429 437445 -806380
1.312000 -1079553 -956411 -828653 -754956 265776 257152 781683 1293754
1.328000 542916 -309942 -340167 -188846 -1182352 338120 -1261370 -1306841
1.344000 107224 2349580 1846727 -363379 -883033 943461 312804 -820370
1.360000 1574149 139989 -785924 -1660893 408856 715139 485928 550543
1.376000 -245052 656417 -340437 409140 767144 -856453 -843621 270410
1.392000 -1563831 89455 427452 -1702067 378878 430612 -512952 948399
1.408000 753349 -1022915 -301557 69561 -1083141 -1329030 -631651 -538474
1.424000 909384 -320592 679728 1008636 -664273 -1481822 -609336 352400
1.440000 -438077 -805924 -725422 945595 596429 194132 -1224556 10609
1.456000 -476680 -1459848 848374 -846543 -542766 -443987 825470 489104
1.472000 -134013 274180 -424316 -921745 686557 -719850 81319 -66821
1.488000 -137669 554838 -140424 90744 743078 552435 -942104 645468
1.504000 -400689 -356927 -726161 1108642 -226571 547094 528519 -177687
1.520000 1218712 2454753 379989 979840 -272109 -108154 60601 -935830
1.536000 -213209 -851145 87641 -231603 -748396 332193 1928101 727742
1.552000 -250672 311978 -390176 -1201160 78652 615308 -891294 1144994
1.568000 25540 -591712 444473 -31739 -181877 -934732 -35984 -768931
1.584000 1477689 439796 -796855 -896847 -609589 -305813 759749 -36147
1.600000 -119244 -228563 672757 -142584 -935241 664986 -455789 315382
1.616000 420324 1168648 -188676 -638731 -1303068 670310 -1951452 -787351
1.632000 848211 -471549 13612 -1136451 -928157 589355 -554133 1197411
1.648000 -2186 -711831 -113402 458363 280434 -157745 -357673 -661931
1.664000 -1162916 1071211 -325175 557943 -604554 305078 21502 654088
1.680000 -588210 560599 -890565 -1071382 -451421 -595736 237198 -514786
1.696000 -561929 -669622 30279 -911724 -1017846 298810 87374 -102659
1.712000 -753427 -1216090 -1158169 431281 -568461 -780664 -139073 1995276
1.728000 796999 778182 -887058 -291478 559945 -869970 365814 15088
1.744000 -363231 -831988 -489814 -1416727 -202522 326637 -145244 -788074
1.760000 -425432 271341 -104757 -333695 -1333962 -949304 1085726 -99548
1.776000 1266089 471226 638363 -556638 -268264 586754 -505559 -542174
1.792000 102821 -1579017 -607742 -295293 -176031 504890 -2800616 -70231
1.808000 1024744 1293431 -1595033 1989777 -672207 491820 232290 -590367
1.824000 947927 -1162878 -1313446 201662 -200939 1581575 -324816 807872
1.840000 -184668 1643615 -251353 -358152 201514 721382 1276179 -1050775
1.856000 -656306 -202875 -1414907 -899325 -503473 -339956 -28468 42576
1.872000 -220962 308419 14400 914220 595525 -1048466 693924 -398178
1.888000 400610 -1487069 -146105 372360 914800 1347528 445642 -21081
1.904000 -770029 1098423 396290 -221465 -1622576 -233933 -1410891 1500589
1.920000 957052 642145 -836533 -47831 -449374 -312938 891132 128831
1.936000 -645333 -1222152 -136611 -275980 1128905 -297612 38155 -992296
1.952000 -109287 -467012 1285141 -134640 -1663673 -750959 406144 -639964
1.968000 862326 -2530598 614551 497843 845486 -502463 -56827 293414
1.984000 92428 1005167 26381 824904 -1263889 -71516 -1760597 226638
2.000000 -1399568 -246294 -203021 -629029 -450032 236137 -510108 183720
2.016000 -427668 2021300 962589 -621951 -575721 -235605 -656635 1807464
2.032000 20194 788628 -213309 -2734610 -231136 -688564 -561142 -1740205
2.048000 -312432 -819152 -2229037 462390 -1388948 227375 243181 1268624
2.064000 92134 2082328 -418954 -1279032 325663 368297 155371 658549
2.080000 -131207 -164600 -1465743 -940790 -1186451 -359561 -107205 -391852
2.096000 1380379 -451139 606625 -891218 -22312 -518351 879513 28516
2.112000 -814700 92225 528422 -360090 -963508 1370321 555090 -1355075
2.128000 -1657234 195259 1293681 1365702 -589653 -1239085 765026 -1132728
2.144000 -1919468 161152 -589677 -1756247 2463368 345932 -269424 -6350
2.160000 184675 629744 108655 4652 -535511 565786 -253983 1513591
2.176000 -309410 936796 -347300 -114415 855773 2346753 1449827 1029949
2.192000 -588956 -298854 -677272 -428329 -493328 723452 233684 -617805
2.208000 -547486 626543 245006 656158 128247 182806 1089183 -193074
2.224000 -208749 -1497509 -1890263 -543643 18313 177312 778047 -818953
2.240000 1641163 264562 1096400 508986 -469264 -1167803 146292 1237449
2.256000 -406413 -485582 -137518 -257502 -298942 190450 -87087 -36684
2.272000 1488412 -156905 -673263 616513 -53570 -531397 -1043764 -53445
2.288000 180468 331004 490944 -783577 -1060151 427073 -467488 218507
2.304000 -511331 188539 815487 544850 -945494 -1469194 1030002 -743821
2.320000 -350793 1799461 1217980 -102973 -569297 -1089666 -218588 955925
2.336000 553819 266707 504740 -807542 646236 -551681 -1667807 -888554
2.352000 -253202 532379 -639337 207953 128691 845245 -317736 1274480
2.368000 96973 -949039 -1381141 -151639 -1700195 539159 1283731 -315282
2.384000 1960897 411664 913225 -512521 -87244 -34518 811803 1339879
2.400000 -1207753 746786 -1050971 127756 -151093 583998 -828348 -698902
2.416000 1490162 120618 807012 530116 1438305 -482137 -374410 -614154
2.432000 -781021 -1011167 -825646 838811 -910624 446366 -180656 -482440
2.448000 1341993 468478 -449467 -1045738 -450249 -960953 276623 -620822
2.464000 8183 109797 -1103470 606682 -1147778 75663 8822 1355238
2.480000 -1746128 2187173 -643796 -378398 -40040 -218215 2482982 372948
2.496000 -1731500 -99716 -719200 -255487 -392500 739949 206472 659751
2.512000 -1144116 -1892553 111519 -127299 -18360 -1047274 855755 305866
2.528000 -45067 -1475616 -923378 922567 -369551 -539361 175159 -30736
2.544000 219592 906437 -302869 -854771 -122568 611945 356581 -474896
2.560000 -635528 1344350 -1299605 1444200 1056139 -645469 -971848 -830261
2.576000 -265746 446325 1256156 546064 -929437 -880228 -129332 -338292
2.592000 7179 -1102310 38335 184380 1483128 -1091426 757086 414312
2.608000 261019 -501381 1338874 1024829 -298233 1723073 -827522 800102
2.624000 -605643 69995 2026990 -714964 902350 -814168 -460721 2398492
2.640000 -1658941 -177833 -1828419 -530355 -42039 -968957 -216453 1111545
2.656000 797868 -1826952 284820 -378556 205119 477313 -2823181 1969895
2.672000 1289791 -741922 -828509 1784069 -554036 1437683 301955 1793661
2.688000 707485 -1232004 280768 -254350 892465 894721 -971608 547322
2.704000 -2011650 -61709 -52749 -481021 1725528 -2739594 -17858 168508
2.720000 -661189 1960040 819732 -1523956 995195 183253 1075258 78263
2.736000 -882851 110973 -1030018 499828 106077 -1091240 -619597 -80756
2.752000 -205011 -1113472 15921 846116 252503 -645954 25009 1121484
2.768000 754916 -157062 54524 481012 412167 -984102 -24892 -896022
2.784000 -168021 -608124 277619 25214 617131 -900432 299393 -851713
2.800000 -711641 1228057 -256307 134688 889100 -1481889 284164 443336
2.816000 -1408149 -69097 862168 318929 125681 991403 990246 1009210
2.832000 658382 37258 618163 1454609 -104212 -281875 1087578 761346
2.848000 17438 302551 1880667 33747 -752488 -250492 -279629 -163509
2.864000 -1179493 -146026 -878698 -1651947 24104 262025 315405 959797
2.880000 -203571 391984 -975593 -53483 84867 162724 -606237 229530
2.896000 159817 166693 -111285 -2000112 1050059 1650460 495159 1529903
2.912000 294961 -3372309 -1362967 364473 1764790 105663 -16458 973344
2.928000 653241 355228 1338467 -1503466 -401923 258533 -1437740 92350
2.944000 1183092 695604 1429703 1492839 -487500 683292 955235 237663
2.960000 97807 -866267 -1101061 1368054 60096 118523 961764 -2239819
2.976000 -209482 -700619 1061725 389242 -31164 -481056 -377454 479652
2.992000 -680607 -262871 68552 -12783 -1198253 -825023 547273 175464
3.008000 -602113 160123 -714412 1378214 1619982 250268 462774 400029
3.024000 1029916 792746 -474423 145588 -876764 -792050 -86851 -141947
3.040000 1329169 -617100 899136 1317524 395235 -253660 -481993 -802077
3.056000 1388317 -1224790 82740 10586 1053824 815749 1128436 2152769
3.072000 -2281258 664191 -732598 415999 513136 230992 794815 458330
3.088000 1341838 343470 410941 543423 552113 -179559 505515 961625
3.104000 272035 1776317 482211 113165 941269 -534857 954413 64409
3.120000 1557396 732742 -342150 306633 -478065 -30535 739778 -334773
3.136000 431860 170788 671255 -1061686 -1936447 -1147036 210828 -895051
3.152000 383836 -44118 -924060 -599503 -780959 549498 329793 805278
3.168000 -69453 589682 -391105 -237786 -574322 568984 -519905 43637
3.184000 1172025 366234 -1091664 -1779291 40308 -1519940 1005856 988657
3.200000 -831922 -395237 -71460 -1313 -1239786 870517 -172843 -355881
3.216000 477559 -1616957 351114 -327729 -158605 42219 699934 759440
3.232000 -324701 -2182282 -1020858 -705586 -22917 608520 1581629 -475183
3.248000 -1719858 89335 -845165 693731 25938 918275 223329 -1040213
3.264000 -596817 17390 -463236 440451 279235 70531 -596882 -194946
3.280000 -504456 1787895 1150742 153395 -230221 1604794 -1747129 504733
3.296000 -1486222 -1250453 1270228 978710 860552 389245 -649473 -735326
3.312000 -590283 114963 -1574538 716488 -1379649 -1537539 90515 -720115
3.328000 9517 -141911 1170493 31022 970688 -783090 -547081 -812812
3.344000 -1725357 -51427 551608 516376 -314154 26364 1332652 1033344
3.360000 429332 2062219 933580 467760 -1172665 -763422 -410897 765288
3.376000 -247961 -124279 -61298 -708204 -143034 385193 -482139 474690
3.392000 793087 -642919 -165836 -2248162 -419695 -425703 387481 1223520
3.408000 -337886 -1372738 351573 -210 336638 -95386 1041151 -1863637
3.424000 981486 -498545 -365089 -670058 -224070 157126 -317114 -503493
3.440000 188533 320086 1564439 952546 388239 -530029 965846 -227715
3.456000 65437 -553678 -416476 -1539015 2527750 -479041 -625645 -728371
3.472000 592723 1064852 -177540 -947306 953133 -643052 297464 1154553
3.488000 -344051 -234348 176099 638120 -536135 -763128 -591181 -969973
3.504000 -318700 47542 -355071 1779507 -183595 769707 -135747 833707
3.520000 -844 1356435 89647 -382819 -25351 -645294 -170065 28718
3.536000 447503 285504 -223509 -585151 -577307 1425995 752305 318173
3.552000 -503473 459917 773825 -430662 134206 1396341 1155201 1080744
3.568000 -1205962 352428 210276 1054477 -802510 -674433 -573336 -577174
3.584000 250586 -533655 -1583880 -584463 -26791 -780060 809086 -1218917
3.600000 -898548 606829 1317689 -96219 104370 -1512654 755464 1646766
3.616000 -89623 1803241 -1222153 32463 -193610 1164294 -221620 760560
3.632000 232626 -204676 -439744 1336867 -310541 -959043 -1004997 -719214
3.648000 -711590 997783 101936 -785780 681208 641560 -318801 692888
3.664000 763134 -553005 571234 265559 -985773 -1033839 -603017 -313448
3.680000 -869037 645783 -1202583 -1094253 -302065 -400740 -1349809 -143135
3.696000 -1697581 168654 87719 -69710 332830 654167 -1118433 -559127
3.712000 -204084 474526 -512648 -281252 421175 664078 -287940 402090
3.728000 910003 1326057 392735 -576738 493480 798944 -191759 -46982
3.744000 165114 771642 -1757530 538005 -125451 -130942 1485302 -316023
3.760000 1445231 595170 -752261 -360236 1506251 267010 -1274950 -1421441
3.776000 -269383 1558365 -59739 -807617 505144 482868 -705635 -367697
3.792000 -600857 313865 460593 443421 1463586 219263 -1313926 -345660
3.808000 -170825 -11307 645955 -2104310 -766824 -1838258 90961 535798
3.824000 85910 1472150 1570720 292218 -399898 -512137 -1337350 -1098168
3.840000 -671480 -699310 -600980 -366829 -354687 204519 -590020 -438503
3.856000 126119 2461065 -1156887 -246606 995499 1047123 -652801 480658
3.872000 287426 -1201712 -327004 690464 777587 144893 883534 339950
3.888000 -2010517 309064 443492 702569 250908 -99069 219341 -511778
3.904000 -495779 7747 -98671 -221969 886830 -692059 81628 994295
3.920000 32076 -1033228 128938 -33004 -273400 1286294 -802232 -308891
3.936000 160055 -258241 -50845 688391 264698 1387818 887871 -270737
3.952000 1431459 1474178 124628 266959 237010 -1235778 -831123 -52600
3.968000 1416677 -529803 -1661678 898830 822438 847846 -18701 289207
3.984000 804746 450429 -1030671 -993609 -1565852 971325 -1292182 661757
4.000000 386453 344647 -126272 -570879 -72286 -730562 117823 -1028712
4.016000 2042734 192717 1176475 765654 -403848 -1080775 -1401978 -103333
4.032000 531437 182576 657973 -529460 -419003 -1957248 1566785 -347806
4.048000 1956003 952440 -312372 85758 -552528 1220318 -1400440 -111215
4.064000 359892 -417823 -295566 175411 -1079434 709723 -1733529 -622183
4.080000 1300624 -622291 42754 122711 539687 332936 1531137 -186625
##END NTUPLES= NMR FID
##END=
