##TITLE= Ethanol in DMSO-d6, 21.7 MHz, LW 2.00 Hz = 0.092 ppm
##JCAMP-DX= 5.01
##DATA TYPE= NMR FID
##DATA CLASS= NTUPLES
##ORIGIN= DIY-NMR Model 3 (simulated)
##OWNER= NMR3 project
##LONGDATE= 2026-09-04
##SPECTROMETER/DATA SYSTEM= DIY-NMR Model 3 / synthetic
##.OBSERVE FREQUENCY= 21.70000000
##.OBSERVE NUCLEUS= ^1H
##.ACQUISITION MODE= SIMULTANEOUS
##.AVERAGES= 2000
##.DIGITISER RES= 20
##.ZERO FILL= 0
##.SOLVENT NAME= DMSO-D6
##SAMPLE DESCRIPTION= synthetic, common time-domain noise, LW 2.00 Hz
##$BF1= 21.70000000
##$SFO1= 21.70000000
##$SF= 21.70000000
##$O1= 0.0000
##$SW_h= 500.0000
##$SW= 23.041475
##$TD= 4096
##$NUC1= <1H>
##$AQ_mod= 3
##$DIGMOD= 0
##$DSPFVS= 0
##$DECIM= 1
##$GRPDLY= 0
##$NS= 2000
##$TE= 318.0
##$PULPROG= <zg>
##$BYTORDA= 0
##NTUPLES= NMR FID
##VAR_NAME= TIME, SPECTRUM/REAL, SPECTRUM/IMAG, PAGE NUMBER
##SYMBOL= X, R, I, N
##VAR_TYPE= INDEPENDENT, DEPENDENT, DEPENDENT, PAGE
##VAR_FORM= AFFN, AFFN, AFFN, AFFN
##VAR_DIM= 2048, 2048, 2048, 2
##UNITS= SECONDS, ARBITRARY UNITS, ARBITRARY UNITS, 
##FIRST= 0, 6.0123997, -4.4437502e-05, 1
##LAST= 4.09400000, 0.018937319, -0.011288424, 2
##MIN= 0, -2.5607289, -1.8631885, 1
##MAX= 4.09400000, 6.0123997, 4.0102322, 2
##FACTOR= 1, 2.239793425e-08, 2.239793425e-08, 1
##PAGE= N=1
##DATA TABLE= (X++(R..R)), XYDATA
0.000000 268435456 191653703 48218138 -30588914 -3585542 52564995 50687329 -15553896
0.016000 -80392034 -106777943 -114328800 -113933731 -97143130 -52813832 -2410185 5298050
0.032000 -20279072 -36262974 -1088973 52946473 75557724 48259763 13625417 5213774
0.048000 21618615 28933140 8917974 -8043492 -12160946 1865575 5954060 -3097310
0.064000 -10685632 -7125902 1720158 6227513 1467942 -7056425 -1265734 2308635
0.080000 3628488 3991810 4164755 7113199 11011890 10815324 10518444 8150219
0.096000 4977205 -1030516 -9617372 -15998817 -24147379 -28676085 -32362952 -35286623
0.112000 -37695330 -36622382 -25556620 -7108003 13704561 24567532 28770072 30274033
0.128000 38566273 53272875 63417636 61962676 47511224 23424315 -4512943 -25230067
0.144000 -28901593 -18783228 -14303303 -35459261 -64936036 -78865859 -58388232 -15289719
0.160000 11976008 8507071 -4742208 -2976861 16552322 32729288 33464653 26300381
0.176000 25434278 27588783 16789648 -1522092 -11068286 -3147800 8222352 4339624
0.192000 -10746331 -22044963 -11612768 6528028 7146604 -3231980 -13394104 -4606712
0.208000 9526932 10478510 -3074139 -11435709 -5048597 8102623 6891858 -3265965
0.224000 -8805369 -1707071 8216684 4685224 -4686288 -9415501 -7822603 -1876248
0.240000 -7382031 -14763194 -14110610 -4855674 4043715 5511862 -827973 -984551
0.256000 7379012 20238515 26490250 22978137 18441735 10574457 6644432 3039279
0.272000 -658035 -2866169 -9117193 -17333719 -24093266 -27865677 -24908136 -17096472
0.288000 -12884628 -9823601 -4769462 -1223575 6139686 13761470 15950881 15344090
0.304000 15625999 16002252 14779972 9991429 5664239 -439001 -2688211 -3678369
0.320000 -5349165 -6334180 -8029751 -6325696 -6726467 -4906576 -3047107 -2041325
0.336000 512672 3893179 1426903 340735 -671673 1571612 3137686 1598406
0.352000 -1765091 -2572121 -54222 2947053 1848263 -2611533 -2401315 370760
0.368000 1600096 2095209 -5119543 -5876593 -136208 2028918 3036239 -4846
0.384000 -412442 3839360 6586484 5170421 1851605 4845645 8475371 9424657
0.400000 841824 -6236851 -5348439 -2061154 1433499 -1192455 -11692260 -15650077
0.416000 -12854954 -6407306 79426 1708587 377792 1965236 2788755 3909318
0.432000 6315735 11156421 13334778 10815620 3509603 -109080 -974238 1438796
0.448000 1182846 -580900 -5721444 -8319734 -5900551 -3909060 -2970078 -2479597
0.464000 -1453459 -334402 2093098 571338 806401 963602 1303001 2456230
0.480000 1021927 1914669 1890183 361839 450664 350834 305240 443975
0.496000 -1377537 847807 96306 -1538275 255117 744210 459817 217430
0.512000 1858993 -1378882 -565366 -85642 -883104 1085037 275427 1256734
0.528000 608854 53510 -2997337 -2158395 -1426736 -2393984 -4033868 -1246149
0.544000 -3860517 -2002664 -3571647 -3097762 -2161015 1072763 4634196 4490077
0.560000 1358513 -145358 377805 4025244 7256410 4467713 1671322 -872467
0.576000 -2488245 -1461958 -1402876 -1179621 -2184169 -2318708 -3099566 -4771847
0.592000 -3058626 452873 2185733 908961 -609516 -1436044 112604 1710636
0.608000 2555235 1961043 -238896 1370173 930062 883239 -623417 -56365
0.624000 750264 1770885 -240940 -3269979 -1810582 -709756 -398413 -346762
0.640000 -171997 165206 -527487 1823621 627540 -1134761 -520993 -250700
0.656000 551439 1544885 371279 -1349727 1426440 -213715 -1420844 -1848215
0.672000 -1609365 -622349 -506598 -660496 -524160 -1366856 -1525758 -1111702
0.688000 1798482 1145693 168729 3003033 1380755 1555415 2677363 522404
0.704000 -11064 -680401 -412459 -1063022 -709335 -2762542 542060 -3072891
0.720000 -2487801 -702797 -1361431 -46320 -2057035 -1428946 824540 106092
0.736000 2207650 -71222 99499 898190 511758 870602 798681 81624
0.752000 100057 731648 392032 1443 -2629323 -1166615 281607 -96389
0.768000 149806 -184417 565778 -716146 10311 1933926 46476 -1178712
0.784000 24690 1292220 246268 270395 1333445 355073 2870118 -763227
0.800000 -253860 968007 -774211 1740048 600008 827757 34111 580160
0.816000 -1458419 2159776 -429881 183019 930568 -620328 1601553 -59936
0.832000 -199149 358561 -899773 -85889 -549138 -853247 61555 1097833
0.848000 -480355 240279 -194998 -1018233 -206386 1727525 2168248 300105
0.864000 1374038 -705711 -1003185 117053 -478955 113290 1569325 -120967
0.880000 -1337362 -118142 692023 -94923 -705216 130859 755978 -617574
0.896000 333522 -20991 222894 -114958 969114 574058 -792351 -27995
0.912000 178432 -327203 -1151372 569523 1355738 -143109 281086 -628962
0.928000 -12677 1858644 -2227023 289516 168914 -1160332 -1454291 944323
0.944000 409270 -764689 679237 1291967 679643 931771 518643 -297302
0.960000 -425958 196741 348830 -1683770 923929 -40421 699593 -1198615
0.976000 -32546 -892533 -559636 -1211990 309884 -291071 -206865 956480
0.992000 940104 96884 -175870 -825339 -815284 -874107 1665484 1080603
1.008000 -1137761 667516 -1023610 334879 -30862 1189323 -359211 -235711
1.024000 281351 -1602335 -737354 -839506 -731989 697221 -40617 -579526
1.040000 355907 -94490 135797 256782 -412064 -372522 -601080 935330
1.056000 -449246 -185870 1216058 -163437 -219646 -839889 1508809 -1245797
1.072000 -868861 1373327 541340 426251 809900 -389640 881945 752780
1.088000 -302731 -73240 -518029 1078206 415799 -304488 245800 -1157868
1.104000 484862 -397028 1043038 -1574836 -292138 -258673 -456820 1223099
1.120000 124973 618256 -201261 -947817 -876190 -463429 572603 -270134
1.136000 -516188 528610 438934 372050 -169834 611599 -338593 -601158
1.152000 -548374 718531 -767759 1160761 -719355 333164 138008 -1131038
1.168000 1217535 779235 2073225 -50143 -847692 353815 -466952 1985823
1.184000 957277 377774 -35388 1226728 -151883 -788648 -2176881 173252
1.200000 -47144 1159746 -1252092 186103 118246 -899832 -468115 1762612
1.216000 -1290341 1418467 1163455 -516573 1476022 -51624 1618113 -300304
1.232000 499980 -1734307 277567 -280409 -51298 -697535 1769531 -430323
1.248000 1395415 -176514 -85197 724632 464551 703845 -1549659 1326628
1.264000 540854 1502855 -512828 895111 1147479 415535 557859 -673662
1.280000 1073848 597894 82483 -606990 1241720 1528316 342480 126698
1.296000 -718275 -433168 -1511333 -609696 -938634 73246 -1237938 -916789
1.312000 486721 -1538630 881087 -1283868 -937699 -521747 648034 -879971
1.328000 -248562 -935842 1240801 -2133005 -636298 856315 308850 -756643
1.344000 459917 -120590 -96310 985278 -1076257 1195350 617059 239002
1.360000 -776092 1267018 1395682 -236577 421090 289822 -144382 -616360
1.376000 866601 -546017 1008156 295958 1051342 -1303411 -1699014 -567341
1.392000 105705 70568 -887612 1121039 -103341 106746 -202844 1048810
1.408000 1073663 778740 676589 -995846 988934 202366 -464489 -605011
1.424000 -1351982 123485 1342996 -759787 -724604 -10039 -3290421 -1838848
1.440000 -155157 121356 492088 1021680 -724531 -1154464 -166435 268976
1.456000 -105071 365831 -1085582 753804 804529 -420238 -1308027 -1110191
1.472000 923235 546389 1345565 161838 1549709 347879 -859496 -1625123
1.488000 -85865 -578731 -1493831 -72622 264740 131153 -667246 -81611
1.504000 -913484 1456285 437528 158210 1358332 1078893 -1218876 -818217
1.520000 -1458699 -443324 -225973 -96771 -1722927 1522919 499139 497949
1.536000 -425838 218910 1502530 496906 -55636 -498981 602369 1065850
1.552000 -646647 803800 372679 -342387 743306 524272 -557656 -443005
1.568000 720638 61786 -433248 997043 272458 648948 -210823 1918896
1.584000 -27353 236825 -100847 397467 2589 -481416 854666 1834173
1.600000 628386 -995014 422325 226005 153238 -31081 458028 -486722
1.616000 1135727 1683861 -913897 -809487 -630915 -1275406 619851 -2189408
1.632000 1410674 -485820 -572219 101406 270095 -150819 -258796 -253210
1.648000 -1025008 1108257 -731283 -579197 1371048 -1879365 -1221007 1029340
1.664000 -1507758 -846649 -42986 -955024 -264107 -200872 -246999 -763350
1.680000 62807 135132 690851 -38923 835172 -171245 -233258 -714963
1.696000 -97863 -365608 -297059 -642330 -1741937 -663228 -438341 1639797
1.712000 764014 -1111326 -230777 220275 -213241 1026062 -908666 -1666587
1.728000 697639 -1029695 861385 -222557 -634964 -347329 -983647 -74856
1.744000 -22218 -197717 1006405 965045 173176 -65690 86370 -891739
1.760000 1412485 525998 -184886 1448803 -781161 -685432 -902460 -930971
1.776000 -2029217 -822715 -1371801 647530 1668468 639047 1259096 2404132
1.792000 -344045 -1817412 -1822928 -1753215 -912258 153600 21991 1146998
1.808000 -1266256 239563 -533334 -138864 -2433595 -234594 857626 -99316
1.824000 -985922 25815 576804 -1305508 499462 250562 -71315 -706477
1.840000 1107547 1387353 1223897 -838413 773254 969597 -56927 664526
1.856000 485523 1280505 -535646 -298882 230542 -293309 338635 1843961
1.872000 -212568 -410760 2040533 -876531 -482754 1364513 -512710 -804434
1.888000 -1098238 589182 86883 326624 637187 792809 263181 577441
1.904000 480201 -364294 1446742 -408652 -16810 494177 134385 -566944
1.920000 -235089 798837 917663 955936 129318 -658331 87724 103497
1.936000 847240 -655593 -240154 798461 1179947 -805701 979381 -440347
1.952000 -766243 506836 -1163211 -840900 -294592 857204 892386 610679
1.968000 -89064 -2195650 -1190876 106726 761519 422052 -130415 899134
1.984000 -182240 1282132 1065840 -844228 258876 -844768 409513 193449
2.000000 469316 -1288805 -1377216 585623 -182344 -371237 265079 -22136
2.016000 -86395 83528 -1375960 993611 -1431257 -433146 -1406697 -1227380
2.032000 1390984 -796087 762965 462161 -1048990 8559 291552 -555323
2.048000 1331853 371595 411171 -77540 384753 -770606 -117239 992188
2.064000 -14926 312539 -67887 -1258915 427656 -1299899 -277314 1147560
2.080000 -864237 178005 122678 -576333 -1053796 1788532 -238487 -632940
2.096000 -162833 168414 1788494 480490 -849065 -1042236 411533 268316
2.112000 -1242152 381351 -879488 50364 -596725 533763 484051 -307381
2.128000 -1251308 1836093 1465997 1052317 984154 -426008 663567 -407899
2.144000 958691 305196 498324 583782 1151276 489201 956682 -724408
2.160000 292847 -714990 1580510 -1724140 -695587 558668 -849588 466366
2.176000 -252576 -1134798 608928 -76467 -429119 -99709 -1249726 185138
2.192000 803188 270672 1184854 -2074619 639900 718897 176135 -353140
2.208000 1009200 -232541 -1949899 2084915 343716 -142044 -866622 -731095
2.224000 -1736080 1006805 -413233 -2628439 -1001594 606583 158872 -253898
2.240000 -120021 -713373 -503019 -698095 52079 1978758 785221 342921
2.256000 -916417 548166 2000732 -79149 -452008 -664562 -458287 1729203
2.272000 1760312 541842 -147132 -507678 747739 -1382130 453308 343651
2.288000 1101408 432950 -367272 1460544 591182 -1649476 1287366 1157711
2.304000 -239416 -1042146 1239484 240120 970738 -922922 -661400 892112
2.320000 2082358 398501 -736763 1164747 526815 -604320 631744 -353312
2.336000 708640 1122433 -86147 -874777 -2187855 -116463 1078669 -593
2.352000 -615627 -1123168 759207 612260 -758346 -651726 -739503 -453988
2.368000 -686615 -107133 -19944 -496407 -754130 376478 -130924 838581
2.384000 941519 884672 -2083446 -552417 -964634 374085 -922763 540140
2.400000 -518919 -184188 -1161837 -19395 1285254 -261040 -314938 973101
2.416000 45850 371075 -1154178 -289308 -1195745 -1191132 -584931 739189
2.432000 -820716 310795 -210943 -825533 1182035 -760713 -1084475 573825
2.448000 -14035 1361878 492967 296424 -1254756 -333141 -1159618 750652
2.464000 105667 1191326 481791 1831109 -961604 -1261612 1021878 -170856
2.480000 162879 380715 -447305 189780 237615 431028 1925729 -632299
2.496000 -655787 906682 115964 -358744 -390039 1883960 -666781 -251548
2.512000 1090131 -452185 1199805 -330031 873212 -451352 -211929 648419
2.528000 67540 632575 1137417 1913926 -165290 148122 -734928 439964
2.544000 1087778 -633476 488979 733428 54325 -1092347 1920569 338011
2.560000 999204 206309 1671354 -2137765 239699 520762 -876951 1155924
2.576000 -135112 -293578 -332725 -245856 -195192 432062 57660 -423206
2.592000 1039177 1800915 -396633 1383310 323303 636766 -103396 531461
2.608000 1709799 303326 382122 3382212 -1029623 1043630 -11991 -272625
2.624000 61337 -178374 157054 694402 -558753 -598096 -825646 -523919
2.640000 -753632 -714436 -127858 -482960 639865 -166234 -1291816 -2277757
2.656000 487787 -590309 29307 -298397 224627 -1601740 543222 -1016659
2.672000 -245348 360798 -611760 266370 396361 1320218 -826343 654335
2.688000 274291 -457354 -1004169 486861 -279378 -215137 -395105 405012
2.704000 -870363 735106 -1220957 1568119 2192859 488869 -178199 -323147
2.720000 503736 1450741 576129 -798952 1797364 1230168 746154 185710
2.736000 748909 -330690 -338549 -132515 262396 770289 -763233 571798
2.752000 819245 221277 152859 1339359 -1129777 -107111 392687 545400
2.768000 4421 -908475 75300 -411148 2100162 -1516919 569126 -368130
2.784000 953713 -5220 379453 -325262 590965 2021047 -670017 870379
2.800000 2540438 678635 417043 -708998 178370 -137640 685644 1037301
2.816000 -879669 -506146 -584111 -2157382 -1492653 -78664 55256 -201773
2.832000 -485405 -196997 228311 999047 12801 -471197 -57757 -466020
2.848000 -403918 760539 658374 -356749 1418791 -534511 567199 568371
2.864000 -476763 -356781 -574700 -796950 428416 -234955 692306 746818
2.880000 1333674 -1016917 -302282 194190 -216669 -1117797 -13973 -82601
2.896000 -361807 469438 -1398170 -217300 -343125 163438 -1018935 -2211
2.912000 86541 -509867 -502548 -1153841 -193992 962851 380821 -225284
2.928000 -94043 -712337 12318 895838 15769 1030704 -294434 73943
2.944000 288929 -1668731 -1375007 49561 261956 -278128 -244484 1871871
2.960000 678306 -210549 178621 -1269427 1020168 -682259 -668926 -1320268
2.976000 748833 -60350 1252208 -1273423 -1268950 728367 -560454 87269
2.992000 -104753 -2039720 -994752 507302 1076081 138674 172465 -547083
3.008000 -1200814 677110 300966 396382 -149027 205671 799137 43931
3.024000 -235983 -629309 -432346 -947017 -388308 266290 -895758 -680168
3.040000 70658 329839 1294085 1141539 -830263 -149623 2924922 704062
3.056000 -977110 327835 1345447 -2263600 -206419 343933 67867 -260799
3.072000 -1130731 47636 -282428 -1048191 776911 -1061329 -670479 437049
3.088000 1182350 161557 822796 626046 838195 -198438 -894502 -103685
3.104000 -175196 -58705 526430 -1741675 -925499 -331857 421106 487017
3.120000 133174 432509 527621 582972 -1089623 -721907 -835434 1200014
3.136000 221868 -280050 892843 -83201 -491147 1449519 -57412 1181638
3.152000 1422974 94319 472376 893418 1495304 284445 531613 -782539
3.168000 370140 245850 33175 -427663 -869095 527927 1303941 1856097
3.184000 -1036232 -235072 2002078 716529 -159263 252975 901557 -2067149
3.200000 360029 521311 -224233 -686482 1191071 502551 186819 -71281
3.216000 778247 1372281 1240516 -39719 -1389246 464153 -222340 1064903
3.232000 -1659801 1891218 -93240 857105 -2010142 381187 -405202 -2001886
3.248000 496911 -227072 693898 428362 -608855 653633 -602268 -55143
3.264000 -1220958 -527100 -1222299 458047 -419723 1245735 -201952 108904
3.280000 804762 -768299 -763775 -1731573 -803609 -365764 722525 -674256
3.296000 -881498 -865558 256517 530280 -699812 471671 985201 212906
3.312000 -2195983 -1326748 239622 -855331 902439 555287 1824286 474513
3.328000 -318644 1928316 22431 92944 -778841 -245603 -565887 330821
3.344000 -955899 -66684 -394494 -1226786 198150 -378872 1574285 -521514
3.360000 -333592 1038943 306338 350760 -18016 -1279991 -435859 -1178146
3.376000 45472 30888 -1315562 -1511955 579708 -695546 -1074722 -233238
3.392000 798611 114169 689172 -636568 -1271325 -107383 480495 -729946
3.408000 -690020 -538033 1084890 -877038 -151488 -751394 2641894 -658544
3.424000 72343 381725 -178466 -2434509 -1578877 1298040 -263562 -236081
3.440000 -787 425831 213870 -946933 -1696968 781948 112461 214572
3.456000 -235430 -13482 -206578 -668819 351180 -529293 -552762 -430359
3.472000 650865 853902 -769353 -1302332 383893 529506 -703151 -105022
3.488000 -652459 445728 -1060813 -1284386 1195335 -1614756 373925 913343
3.504000 1005909 -369947 486422 32588 -888820 -200531 46738 548171
3.520000 328358 563067 676477 -408661 276032 365903 1519365 -850882
3.536000 -243249 -1497446 -1828581 763479 -64312 -4935 -958886 -891786
3.552000 -1007636 -828033 -184242 103081 -207200 256721 396648 842901
3.568000 1212882 -42002 637469 -208550 -1290234 -893910 215698 661074
3.584000 -1294490 121713 599745 694208 928104 2054502 256785 -1168579
3.600000 -587976 267148 258528 -1091570 -1257706 156714 512084 214852
3.616000 -1253321 966103 476057 620854 334764 707697 -228508 -1162686
3.632000 272070 -1123112 118289 429937 -473915 210459 -500039 -146315
3.648000 -14030 -1558597 -1030947 -594468 -1676746 -838886 321806 168689
3.664000 1398663 1423643 -940510 256682 9800 -388603 -546811 689828
3.680000 -654552 169760 -541061 820060 744339 -156210 -240782 -1465103
3.696000 -484427 -124639 -466319 -808872 214036 -861987 -1379195 -319000
3.712000 -485201 -26143 -1024777 -139592 1496432 172726 323314 -80662
3.728000 -1171908 -944420 1703224 1923244 -993231 -70711 -397043 -1468535
3.744000 1891469 741375 34469 -700866 -1100284 -594235 1405716 -1755790
3.760000 -513915 -107380 -118552 382736 -386907 1447573 386998 -171716
3.776000 -1067834 -853096 -473355 -1177760 -332495 1482341 1769259 153291
3.792000 -2001707 -144577 701582 1586119 1606168 -169481 175272 -55634
3.808000 954948 651187 73510 39676 56144 -216721 228857 1633818
3.824000 415446 90033 -628185 -709030 -1590856 -154799 1116836 -762383
3.840000 992313 -158447 330840 -541896 -865749 1406380 371439 -163042
3.856000 -1126242 -117813 494191 -190176 468200 -190356 161882 486461
3.872000 -1062580 248288 -1180910 -429972 394266 -994692 -167577 1539358
3.888000 852030 64493 -1144477 878415 503912 -1220298 856752 411946
3.904000 1147192 -599470 -182806 1167575 -1081079 -953464 1104082 33787
3.920000 -690874 116054 2392868 249950 543030 226630 242871 913214
3.936000 654645 -972473 530534 -382309 -147878 -881059 124575 -1164175
3.952000 390435 -698935 945411 -221743 688604 586086 157619 -66894
3.968000 -205670 162092 -789379 277388 -512319 8263 1205954 -321512
3.984000 503555 144016 -648756 278834 -247587 1356319 -756827 -1077182
4.000000 669006 185936 -631173 943814 -1533392 779692 -507956 7574
4.016000 -393873 431343 218108 109457 -1319762 -1645817 981064 148256
4.032000 -254902 -352560 1493590 384294 -1090160 -1407129 804878 625494
4.048000 -1126106 -9379 123298 -810819 -543574 -1220752 -275809 -592404
4.064000 -887800 131922 -337079 394088 780767 -1205317 -1994959 -631438
4.080000 -495992 -189410 -600458 183004 -383900 549353 -566287 845494
##PAGE= N=2
##DATA TABLE= (X++(I..I)), XYDATA
0.000000 -1984 151280833 179044736 97776086 26102660 41011477 107832794 140217987
0.016000 115603449 66492991 29104100 -9061257 -53427007 -80816398 -66643399 -29418313
0.032000 -17558162 -48703361 -83185728 -70559365 -20509948 21263297 20031451 655844
0.048000 -4979737 14364641 29427416 19286532 479374 -1820614 6039794 10685372
0.064000 3563897 -5437420 -6246851 1644775 6084570 2173218 -4406795 -4595484
0.080000 -3147575 96087 -1618060 -2177949 67689 6026775 8774882 14581129
0.096000 19445658 21899701 24245918 23169146 18163698 10807191 4268633 -3480519
0.112000 -13748554 -30289107 -44369394 -52501700 -50208200 -38968604 -28279174 -27128510
0.128000 -25968867 -17081649 2404281 28288121 51392984 65196586 62620435 48150035
0.144000 28909916 20500986 31006607 42037836 29333419 -9848523 -51811810 -60597389
0.160000 -41735697 -18207256 -18189870 -31538137 -37527691 -25330666 -7160786 4007440
0.176000 4129514 13581084 25063848 26476776 12092895 -2731898 2199906 17767217
0.192000 18475914 2122039 -12823431 -11069736 4611832 9715521 -1786073 -13079396
0.208000 -7652762 5966131 9660581 1416276 -12206833 -6344824 6756853 8410989
0.224000 1968100 -5962303 -2462560 7599240 10125844 3270054 -1901668 491883
0.240000 5341449 808253 -11769260 -19583143 -15543834 -6562542 -5726673 -11282941
0.256000 -18885909 -15037506 -5275466 7192151 13852010 16300109 17931401 17128460
0.272000 17909667 20148196 20177429 20135264 11049087 1377225 -7142451 -13941357
0.288000 -16272723 -15738289 -17255496 -19686152 -19189324 -15329981 -10570057 -4908730
0.304000 -1655839 2662183 7853192 10780711 11816177 12681273 10902597 7075565
0.320000 7320439 4956162 2697191 387514 -2876667 -2174261 -3414264 -3705035
0.336000 -4296596 -3559008 488926 -220386 -992662 -2563830 -18816 2523744
0.352000 3520272 -1397641 -2339879 -546930 5179667 2960257 -1721589 -2978322
0.368000 -1083122 3626154 2151648 -3906124 -5921797 -3681808 523883 257659
0.384000 -3052367 -6444322 -1876136 2070258 -1385362 7586 -70494 9739767
0.400000 12741513 8122183 196467 -775359 3600956 9967962 8849539 -255414
0.416000 -9778494 -11479982 -9020835 -7724434 -6032617 -6030564 -6752924 -6933759
0.432000 -6766650 -5577352 8175 6190961 9803772 7592291 3741859 2721094
0.448000 5544320 5596681 6605720 1369199 -68212 -2104527 -2943735 -2557223
0.464000 -2906533 -1270562 -1471896 -3814765 -146162 -1405184 -283647 -294720
0.480000 393002 555512 243667 134014 2108546 1250746 335090 1754760
0.496000 -700819 -1005449 -326356 1455430 -1389230 578588 -998867 559289
0.512000 -562319 -187597 -997267 263323 -663604 281377 -1727373 275248
0.528000 1769841 3693049 1614689 1262355 1164391 1085462 1183424 -414563
0.544000 445446 172197 -2329304 -581590 -5113948 -5123981 -2548251 -1407307
0.560000 2303238 59014 -3596443 -2666346 -2093 3243940 5045730 3776440
0.576000 3201044 1993560 1492670 2048908 2424858 1489008 948183 -1013797
0.592000 -3803061 -3800387 -988169 -1007459 -20115 -295848 -2187769 -2288917
0.608000 1696761 1428854 271565 -1252401 -455545 367730 1613855 -54521
0.624000 -150918 220354 -44275 423043 -43105 592183 -892040 1795967
0.640000 -237990 224973 167298 -680767 -1712478 926045 811261 -795024
0.656000 297400 1218102 1095349 758462 892933 -272777 464449 1787400
0.672000 799270 946838 8855 143103 -1079864 -1516439 -1480183 -2374032
0.688000 186299 -1800693 1524611 414648 -247057 1384665 692470 779650
0.704000 593001 1970902 2040667 2153689 -1060571 1685072 -311129 1496189
0.720000 -661512 -970774 201131 -1021164 989905 -1515296 872360 -1414069
0.736000 221572 -504195 671916 742158 413601 1018452 403118 695539
0.752000 1088402 -822086 239850 36822 -163183 -521973 -534676 64301
0.768000 -1321702 1166254 -1296459 -220501 -1792538 -627099 -786919 491858
0.784000 -352472 -168130 344744 -885660 1003607 -199211 1180364 355465
0.800000 24516 836332 -72383 219726 545902 425141 -910403 -88522
0.816000 -386166 529476 -424310 -44563 -264161 -362924 -457936 607235
0.832000 -329913 2349156 860384 -147980 644929 729983 257914 1521605
0.848000 -548660 -400186 -1202188 -1262043 -676985 1408100 -243511 -878429
0.864000 -837627 -182546 -689911 -823744 -121610 686008 209606 728092
0.880000 61333 1164940 -1015715 28723 -1369921 957305 -987114 933382
0.896000 -501930 -663545 1198363 -124574 136100 225042 230760 798165
0.912000 -627876 -847201 950607 494833 -41478 -326066 -1393389 -207849
0.928000 594225 430952 591621 205105 -119580 209567 -703830 -122759
0.944000 -578215 910478 15959 490268 588019 593475 -744239 605203
0.960000 1033051 84189 295115 741801 36357 645474 517009 -46963
0.976000 -606372 -920597 882960 1346448 -651906 -2244502 -121443 -1129049
0.992000 772235 235681 1500547 -747284 -797319 -738778 -146756 -1852812
1.008000 -205 499565 -793621 128425 1632454 180258 896435 108188
1.024000 220273 262447 1457555 -316116 -263145 36026 311686 219302
1.040000 -788272 947158 -681883 718871 512703 -833032 482090 492082
1.056000 673641 -500485 -260550 289852 180640 37026 -17106 794902
1.072000 -470310 -411070 948058 1008782 255381 -466532 24537 438594
1.088000 -333855 2785320 -293909 -197931 -253891 -64069 357523 -839084
1.104000 869735 -1359327 -1161450 -529022 -390005 -805324 -1288851 -518690
1.120000 -261165 -128918 839664 272939 1331 11596 -1465250 516505
1.136000 -573476 420446 -1602563 501488 -1461349 -567282 542855 -887740
1.152000 733776 1129663 -1811153 535727 -1141055 692077 452506 1089968
1.168000 -1258775 618962 -463209 877418 -512852 -1370094 -321144 -228407
1.184000 504520 -326985 1434065 -159987 785878 9003 208863 -13361
1.200000 1090400 201466 -293595 -616649 -1734817 1045066 301393 -530233
1.216000 -1723471 -462106 -124353 443464 -531056 -990035 1003542 2152224
1.232000 -33544 -325914 1181069 -44347 550930 5425 -312282 -373196
1.248000 -335542 766646 522229 1467518 362305 -2205479 -176430 115709
1.264000 721261 1142756 -894446 296896 28237 -1447645 1758953 226825
1.280000 -193844 166108 -513463 476809 -25582 -250495 1147340 101109
1.296000 644236 168345 38764 -1235711 1337393 -800060 -183334 -942807
1.312000 234511 1603175 1174007 -1213403 -626474 -897990 -29712 1094468
1.328000 437511 234629 -923015 -686621 289416 -397238 -256214 1333505
1.344000 -271074 919348 -1751203 -578696 1178191 -721924 1428605 134683
1.360000 694667 -2021407 759184 -88881 1862603 -534867 1051079 254277
1.376000 -1261347 1172934 335014 -1504369 23474 1873152 -37679 -403547
1.392000 -1119884 -852202 -200047 26556 -696111 -255910 1098225 1048917
1.408000 1574793 -399755 -68852 373702 -204522 605611 -1853847 -1096268
1.424000 47974 -1530651 -1741422 -701511 1453105 -1396170 -48321 -1053423
1.440000 1063121 -433169 -1551550 419926 -2095070 1654769 1429772 -2489235
1.456000 432179 251896 604549 -94155 -279452 -212435 281802 -3482886
1.472000 210003 -933549 687936 -135308 -285746 -970059 -1017058 117857
1.488000 -471167 -1629815 412943 -830452 955480 -238141 776548 -454996
1.504000 -1471956 -116191 -432905 766463 -846936 1309472 -619285 286600
1.520000 -591012 1895733 3896 -573135 378399 -144555 72977 1703012
1.536000 823876 151968 973813 368037 -1278711 759983 732467 463191
1.552000 -433158 1219124 949133 -711596 1588485 221956 -17771 -477040
1.568000 -64742 374913 -165934 -1206332 1054895 -1656983 492172 -308517
1.584000 -948240 430286 -657337 72467 1806346 -397059 488535 -26131
1.600000 -22605 -447568 -271638 257756 -888009 -597700 765412 1855512
1.616000 -666961 -366028 37676 1009380 1916133 210437 -229053 -169126
1.632000 -492558 -290332 -400904 869890 215905 584331 433475 -15647
1.648000 -1537611 110140 -101530 271721 -1611575 742650 -915255 673312
1.664000 -227822 -87064 328797 1188804 -820309 -256561 1235356 397692
1.680000 445243 130932 203002 123981 1758078 720138 -966698 121199
1.696000 720075 -49961 552718 1697237 -15103 1095568 522521 827408
1.712000 182726 -619916 -784295 593824 -199130 409437 -84436 -193940
1.728000 1293412 -1093281 -219640 13006 -693779 -542591 1599283 -204017
1.744000 1724521 1116202 341368 554108 -662186 -780128 -410130 -1191841
1.760000 1049090 119062 -176368 -499526 1184117 859561 609470 1412454
1.776000 -1028447 -59846 185299 1120161 1143387 -1464005 -1593811 493168
1.792000 -2228152 89539 -171857 264308 -341753 -1217444 -478847 685425
1.808000 -746416 -1203719 -1447584 -368898 1164405 81321 -717801 586423
1.824000 -61938 -117441 -1303799 581273 -561548 -1910574 1921995 380930
1.840000 908695 1815501 -205614 -1160812 995654 251162 -115164 -891035
1.856000 -1045612 1433469 557652 149183 -88821 645083 822423 -1082427
1.872000 -909252 -670178 1273821 254130 822629 -2044391 872295 399731
1.888000 -8596 2221100 -898640 334539 -1058735 -775662 -320052 671946
1.904000 -2381962 767108 193908 -1009225 -282112 -1192744 -230765 -583855
1.920000 662943 1663377 -1623913 764496 -89379 671305 250157 1131118
1.936000 -1268226 -376159 596844 -530543 1297679 1516521 -798886 201081
1.952000 176893 -1077520 200939 -771381 1001654 -322474 1192671 -1009657
1.968000 -313263 465659 -10505 -20726 361229 553182 583656 428084
1.984000 447431 -360339 240656 535800 805260 -1261204 -327753 -1256806
2.000000 -332314 -202442 -836319 1254539 415025 1039685 1103444 -724524
2.016000 -125194 -439026 -619951 525298 -1725990 -224534 -496606 -17778
2.032000 1104445 -17466 55500 -923481 -395704 243827 -255194 329063
2.048000 187740 -747900 -114858 1182631 -1989516 618590 408189 -442278
2.064000 654374 284795 -525300 -1632418 127858 1515724 -1461364 1477737
2.080000 1365283 612788 1294502 8450 339361 -459712 -1819441 -1427360
2.096000 511940 107632 -572717 -557827 1528614 751000 -128293 850673
2.112000 508226 984733 875831 446922 516813 119344 175038 -435361
2.128000 1640894 -555366 -361838 1230507 786111 -908328 589521 -508606
2.144000 497073 -204801 115987 -975140 726326 635890 -686922 505288
2.160000 61321 2484188 1823399 1437457 -163846 928779 -294298 521681
2.176000 716183 195703 117550 233592 -120499 -1029193 -190704 -927031
2.192000 185797 1309974 -189218 -849322 627002 13389 -645236 215330
2.208000 -62755 878885 -204379 479228 77469 613304 -106725 -1799131
2.224000 708052 -1207619 -316273 811677 -1947818 -203477 -759358 -886731
2.240000 -620249 1294861 -258425 705067 -1158018 -69159 -543850 38661
2.256000 -500664 -113951 -840711 323883 -246320 -42518 -900846 1185545
2.272000 -320941 187060 311299 -460370 -323596 -394071 1254703 229087
2.288000 161706 101818 -909803 -189810 494725 1156983 35849 562036
2.304000 -1842889 -834846 285903 -729368 -1301644 226112 -149464 532470
2.320000 71935 610260 -1174669 1037084 1420462 -1828333 -613455 1278933
2.336000 1190900 -507769 707462 664213 -1006636 923336 440436 950071
2.352000 -1327134 -373292 -1158422 1170197 773271 199020 -2024241 253945
2.368000 1958729 -276148 -278781 -589513 471739 -38262 116155 1116718
2.384000 380626 -792027 898579 1792359 -435752 972408 -691109 -1016459
2.400000 -319546 -362210 -1062273 932743 -442528 362909 -50875 82534
2.416000 73748 -1884671 -141901 217588 260559 1599117 -1110024 -788029
2.432000 -523155 1376932 1253258 404180 -931050 -1018265 229987 -503604
2.448000 -158078 -416821 458862 -1859350 321286 373044 -646682 -553998
2.464000 132463 295508 995490 -1269119 -186401 -1321431 -943835 -2193807
2.480000 -1039695 188800 -1005264 15444 703595 -1195802 190235 -958527
2.496000 42967 -1471856 759473 1475982 1588678 345811 452362 679847
2.512000 450063 -686064 579666 -1846767 231598 -1804064 -142453 -1532501
2.528000 -1561580 -148327 -189820 1261283 98292 589 -114277 -1653174
2.544000 1951334 -231607 -2113178 541083 329535 -411208 -105496 -1095832
2.560000 -274742 -840514 -40531 -2325303 -622799 809016 -115566 -1665793
2.576000 -576200 -337343 1015154 -381123 -569909 533802 -1020705 1676340
2.592000 -632788 629347 314794 -842978 -163806 -529197 -212792 1300999
2.608000 -705783 344505 1843691 339550 1054579 932226 1001643 -288845
2.624000 -914934 1640858 -649409 -743887 -1337058 1072792 -493762 742508
2.640000 1372536 -324989 -716075 -555347 -830207 1236637 148218 -784995
2.656000 -193092 -850244 -771889 249663 -1143743 -819047 274549 -974778
2.672000 381234 -1245746 1105187 180922 -82839 632915 -362708 295497
2.688000 -1607173 103909 -1092486 1429180 187210 -772869 674563 -350015
2.704000 263674 -415412 136728 852872 1091368 -328823 -502910 -714128
2.720000 1429654 240879 288704 370296 -2701182 981484 399957 -78988
2.736000 -424642 1187011 -279118 131002 213543 -64483 -603109 -691647
2.752000 470830 -746717 2267103 717275 -1239443 -613914 -472622 49565
2.768000 594815 602651 -930246 618385 738834 431792 -104511 -884245
2.784000 224432 -1015916 278992 157833 2193509 -1272687 10226 165295
2.800000 1049890 -709924 1155075 990825 24747 -336114 -38847 -37834
2.816000 1252151 -226877 1121186 -999911 -917320 668739 -1082686 1087769
2.832000 900545 1183620 487680 -585567 -58928 690814 403131 -1606475
2.848000 -1082761 332954 -879792 -650357 -671695 185321 -285366 1672888
2.864000 -171034 -324847 848762 -891652 327778 -2113068 -553545 638606
2.880000 -753913 1069075 -409321 746763 -1785904 -1542544 547813 396319
2.896000 -562230 -1021502 1038285 130308 331311 2163791 1125778 910501
2.912000 -17021 795213 323562 -608539 784472 -1332139 975282 -727224
2.928000 335295 -839640 251496 882478 -525165 950433 -375950 -1133410
2.944000 -967628 -1085835 -1165303 -1072792 -833994 -921137 19786 -25096
2.960000 743976 -500984 -196802 -992123 1628133 -303476 442642 303071
2.976000 -572938 825211 833119 -200247 1124620 725430 -497820 1126057
2.992000 987625 294613 -1162041 1083615 -1317873 -281055 -33197 461286
3.008000 -893384 1043547 374668 577918 -569044 -887364 2055680 -1325545
3.024000 752599 -139439 -288450 1034744 -372595 -68202 -1536837 -2165688
3.040000 335710 -298295 -1686720 47642 -851367 -518707 1249417 -532070
3.056000 -676579 259289 -758515 1040461 -43369 -174370 -203918 -827355
3.072000 328073 -1370670 -367828 908344 660257 -34130 -509083 -701941
3.088000 -306401 -505946 -340568 -709715 -665240 -715854 -1829756 -852767
3.104000 91014 317852 429885 1305977 -615717 -1038622 816409 -1165720
3.120000 653211 -89932 -828933 672617 -539880 -498744 -1385244 1644696
3.136000 1354877 -68327 1107768 278188 1739170 480694 -596317 1196609
3.152000 652281 -644222 -1153666 -274254 884539 918793 -1449915 -492901
3.168000 1333905 1244558 156916 -1201491 -685605 4968 -606099 -2707953
3.184000 776983 -250702 -1536065 321721 -1041439 -2134531 153655 -660591
3.200000 -662036 1091134 -1331446 -1341973 719938 432317 1261213 -1028980
3.216000 -47495 -1282784 1394541 1044130 -1065160 -479381 222793 -1427744
3.232000 874382 1587297 -469549 1705823 600378 383313 496123 1484868
3.248000 598713 187629 255426 -604875 -333202 1529957 1249900 -412242
3.264000 1166014 -459351 -348596 -882281 -1092070 892343 -356518 137096
3.280000 -1281959 195129 304385 33058 -538871 -481079 -11001 -862959
3.296000 745353 -1422987 2023775 -776180 147233 -284943 -252709 740958
3.312000 211274 221079 2145258 -288328 -360647 -54303 -984937 -678220
3.328000 712131 -1054062 -1992576 -157747 -543029 -882733 -1182004 392685
3.344000 -101677 -306763 133192 -1801090 -411508 1247267 818420 -1354572
3.360000 -812111 -651482 1347425 149882 667520 1426302 364540 528063
3.376000 -258921 -1161002 862287 974937 277734 -68779 1291514 1396696
3.392000 -571695 -324776 545028 424964 123125 -156403 721389 -747995
3.408000 935467 1832835 176562 -649619 1238686 689386 1383949 1005795
3.424000 384225 886691 -973061 -900148 -366175 384457 -616678 -737514
3.440000 -309797 -52473 -701424 1463702 -347161 436323 -1158201 -105038
3.456000 1851371 608609 -164711 -449289 1399488 1234336 -223889 1670413
3.472000 -308580 -304319 436597 274379 417439 -1431549 -121360 -855594
3.488000 -1312030 993530 -161601 -340981 -927613 -209422 370408 -1324760
3.504000 -44955 798230 -744495 624395 -109129 246327 909526 -1026672
3.520000 -1137859 -1185451 -125609 -477404 828711 364635 -114804 900779
3.536000 575171 978899 -725516 388918 702769 -1090384 240128 1076522
3.552000 -428750 727812 -48648 522654 -170791 24962 -678704 106453
3.568000 -402042 860640 1169793 -1154854 -30047 1046960 -1067476 192727
3.584000 -93450 -181412 1283057 -831499 -697065 -452263 784440 -631410
3.600000 207057 1233378 -873394 -745687 -235745 755244 -138510 1021087
3.616000 -293510 -847678 750567 -8022 588730 -372161 1953620 16073
3.632000 1010542 -269901 513711 -417721 -128941 84738 -930142 565674
3.648000 1240833 -775518 -1720004 -736727 1828458 -1111609 807928 1860865
3.664000 131093 268172 872835 -422096 666449 1031287 315639 -1524911
3.680000 463765 -868202 921726 -192642 1484187 -337818 1222662 -1188876
3.696000 -981518 491215 -2535 986635 166865 -891755 930602 556409
3.712000 -331658 -894957 522003 -936059 1454126 568316 -634521 955945
3.728000 1447897 597206 74749 -1138627 -932306 890615 -204436 -55814
3.744000 -120847 -895785 43617 865876 621314 730776 241047 698169
3.760000 -1048572 1192063 367531 33756 260455 659307 -1901949 -838137
3.776000 -44911 -437322 366249 320275 -97263 1648224 563806 113278
3.792000 -26990 -592193 -522187 503719 -809670 1442 -85656 749531
3.808000 -904010 730190 -1925498 -1578364 856612 923777 -1249253 615808
3.824000 -253182 1985977 1928227 -367891 -598064 301980 1035840 982730
3.840000 1265019 216779 1654770 618855 2174740 1833175 -524307 -243903
3.856000 -32813 -1145610 -565542 -720251 -784942 2321758 1167320 -864774
3.872000 613284 -571460 -340759 2685328 -2132776 1087564 -2304225 950546
3.888000 267081 6694 1461716 -66804 -154632 -619687 264819 -418366
3.904000 -908136 701627 -1130937 -525457 217053 -754059 126102 577888
3.920000 -2242358 113964 -1950257 1989069 932808 -291557 942806 -1553156
3.936000 -861566 555858 322714 884683 -921919 -1514844 -1735770 70176
3.952000 -476489 482264 84296 342675 -372854 -1805543 -394436 324542
3.968000 1312795 -366515 -778805 7306 311968 635370 -696584 604851
3.984000 -792857 240127 -398300 -592672 -280476 2102611 313613 1172482
4.000000 1061494 1563412 -1970566 -1013188 -457976 -490710 -1186096 -863605
4.016000 -290225 1102842 -1091138 382473 -1218296 -1194604 -66951 212615
4.032000 -500640 469134 -13393 -617534 -313107 639377 406951 959908
4.048000 -42635 799520 -696897 1055287 392905 -113796 -1503871 -133213
4.064000 402531 79215 -711601 -846953 481356 -1549875 1069453 -684347
4.080000 917358 -63290 725144 -1411741 499394 2048053 897583 -503994
##END NTUPLES= NMR FID
##END=
