##TITLE= Ethanol in DMSO-d6, 21.7 MHz, LW 1.2 Hz (Branch B, multiplets resolved)
##JCAMP-DX= 5.01
##DATA TYPE= NMR FID
##DATA CLASS= NTUPLES
##ORIGIN= DIY-NMR Model 3 (simulated)
##OWNER= NMR3 project
##LONGDATE= 2026-09-03
##SPECTROMETER/DATA SYSTEM= DIY-NMR Model 3 / synthetic
##.OBSERVE FREQUENCY= 21.70000000
##.OBSERVE NUCLEUS= ^1H
##.ACQUISITION MODE= SIMULTANEOUS
##.AVERAGES= 2000
##.DIGITISER RES= 20
##.ZERO FILL= 0
##.SOLVENT NAME= DMSO-D6
##SAMPLE DESCRIPTION= Ethanol / DMSO-d6, synthetic, LW 1.2 Hz, O1 at 0.00 ppm
##$BF1= 21.70000000
##$SFO1= 21.70000000
##$SF= 21.70000000
##$O1= 0.0000
##$SW_h= 500.0000
##$SW= 23.041475
##$TD= 4096
##$NUC1= <1H>
##$AQ_mod= 3
##$DIGMOD= 0
##$DSPFVS= 0
##$DECIM= 1
##$GRPDLY= 0
##$NS= 2000
##$TE= 318.0
##$PULPROG= <zg>
##$BYTORDA= 0
##NTUPLES= NMR FID
##VAR_NAME= TIME, SPECTRUM/REAL, SPECTRUM/IMAG, PAGE NUMBER
##SYMBOL= X, R, I, N
##VAR_TYPE= INDEPENDENT, DEPENDENT, DEPENDENT, PAGE
##VAR_FORM= AFFN, AFFN, AFFN, AFFN
##VAR_DIM= 2048, 2048, 2048, 2
##UNITS= SECONDS, ARBITRARY UNITS, ARBITRARY UNITS, 
##FIRST= 0, 6.0085315, -0.0050691967, 1
##LAST= 4.09400000, -0.0089521785, 0.0028220252, 2
##MIN= 0, -2.7249804, -2.0520893, 1
##MAX= 4.09400000, 6.0085315, 4.0185539, 2
##FACTOR= 1, 2.238352407e-08, 2.238352407e-08, 1
##PAGE= N=1
##DATA TABLE= (X++(R..R)), XYDATA
0.000000 268435456 192638559 48051005 -31521611 -2231138 55603394 51825133 -15810093
0.016000 -83118002 -112000422 -119278404 -121740453 -103642753 -54914614 -3684456 6323526
0.032000 -23114309 -38118901 -1646364 57663515 81648776 53895333 14002814 6942762
0.048000 24152343 31288416 11439020 -11194448 -12401100 1132859 6743050 -2889653
0.064000 -11553573 -7474980 3140941 7227588 1102464 -5076899 -3230176 2997530
0.080000 5054142 3406914 4503040 8749974 13054749 14532440 13037991 10062371
0.096000 6084307 -659548 -9909483 -20685607 -30172182 -38201730 -43280689 -47293795
0.112000 -50864731 -48829366 -34827813 -8920727 17771847 34008685 37773300 40700070
0.128000 53694614 74452054 89032684 87128888 66344838 32544181 -6346662 -34556015
0.144000 -39824316 -26821987 -21497241 -48089911 -93993246 -116496141 -85580724 -24061188
0.160000 17130296 13748121 -7772978 -6214993 22494863 48077117 51291422 41777985
0.176000 40436288 40276742 25147843 -3822997 -18856694 -5812787 14378918 8809503
0.192000 -19891257 -36301025 -19098630 9684693 13764691 -8011396 -21395082 -6867993
0.208000 15959786 16810907 -5650715 -18878764 -4936074 15164906 15099040 -4353309
0.224000 -15359435 -3169717 12357931 9323215 -8957961 -18563639 -11197454 -3207397
0.240000 -10568654 -25553046 -26613934 -9216916 8632564 11238192 1072623 -772714
0.256000 15330470 37663404 49840498 45755423 33711051 21248258 12028749 5698114
0.272000 570979 -5599931 -17975630 -34797838 -49299929 -54491713 -48130559 -36591953
0.288000 -26089896 -18436496 -10454886 827678 13531391 24771728 31830546 34754137
0.304000 35299629 34598045 30411500 22988309 11622149 1045349 -5852941 -8193156
0.320000 -10371648 -13581957 -16769392 -17217408 -13267248 -10598792 -8352660 -5596712
0.336000 106567 4834255 4053963 -893548 -2246516 2479158 6724589 4111899
0.352000 -3850724 -6186700 1038154 7586069 3904765 -5407364 -7841336 551977
0.368000 6904901 1536183 -9920708 -12430837 -2951794 7104759 5267867 -2466828
0.384000 -1750430 8288820 15801066 12870000 7712679 12823498 23767945 22580880
0.400000 3145490 -18557369 -20710903 -4712874 5622392 -6900907 -31876394 -45555904
0.416000 -35922193 -16150763 -1718981 3122846 4228201 4681996 6459977 9595018
0.432000 18354090 32592840 40546216 32093128 12032390 -4268941 -5485755 2863082
0.448000 6183878 -3966803 -17245185 -24019007 -20511089 -13269639 -9616394 -7319622
0.464000 -5365237 -1597994 464775 2551756 3501578 5555430 6592008 5829583
0.480000 3904278 2375127 1569373 939022 642219 -446803 -503110 -283057
0.496000 69880 -245992 -397943 -156753 -386283 -335164 -634812 559767
0.512000 -83196 584958 2137293 2813242 3320457 3040148 3424664 4767911
0.528000 5316703 3345761 -495538 -4331060 -6048019 -6411195 -8391874 -9935119
0.544000 -9725389 -10320242 -11671536 -13312255 -9083700 1679122 12729773 14991240
0.560000 8253580 2620003 6606360 18487868 25204440 20567379 7592094 -3227485
0.576000 -6347530 -5440559 -5994022 -7282201 -7518065 -8996139 -14586205 -19208649
0.592000 -15259023 -4487221 6825460 7878465 567268 -3736810 1180207 9649861
0.608000 12866497 7632275 1196406 698480 3983738 3812073 -932718 -3519915
0.624000 -2085787 1661950 1331520 -1946074 -3981968 -901352 2030288 2007071
0.640000 -725506 -2095945 -1108004 2361085 1625893 -58250 -1318648 479879
0.656000 1889202 1873405 249025 -1117164 -313545 -657572 -752157 -2809985
0.672000 -3861149 -4269178 -4390657 -4263840 -3289155 -2034459 212625 1187620
0.688000 2742223 4635585 6126195 7811457 8707161 8313466 6867453 5585122
0.704000 3838078 915415 -2473602 -5697349 -7449817 -7648630 -7344195 -7710936
0.720000 -7858253 -8803627 -6790254 -2916002 1362708 3977042 4390778 4409938
0.736000 4574489 5026285 5268493 5395348 5705975 4277091 1005700 -2279609
0.752000 -3022386 -1245114 52799 -1046611 -3020567 -3876496 -1546018 700208
0.768000 648705 -1249519 -1696192 99206 2579535 831460 -1433494 -2342541
0.784000 106243 2488131 1192920 -1588714 -1841573 584700 2292077 993600
0.800000 -2174096 -2837239 -259577 1053252 3332 -3023118 -3293978 142135
0.816000 3249620 2600315 511690 -40868 2310543 4725615 4839498 3900951
0.832000 3417718 1925177 -78499 -2812840 -3868311 -2471068 -1683847 -2940916
0.848000 -5497847 -8051388 -6982661 -3449632 787907 1471859 1241424 752801
0.864000 2316597 4233042 5272483 5201103 5301284 3673141 2041607 795787
0.880000 -155596 -819517 -1447837 -1319470 -3048778 -2532472 -2776970 -2590248
0.896000 -1492618 -1053164 -852820 -630340 71821 831469 878585 535678
0.912000 453544 866446 -199434 461856 457470 24984 -174509 240982
0.928000 306624 20747 -322942 -222810 821668 58782 -833298 -412462
0.944000 -356144 749282 703947 -251212 399973 1505746 2081700 569791
0.960000 473987 766360 2159010 1809752 -328176 -2323396 -3147877 -1598607
0.976000 -590852 -1042461 -2769095 -3565037 -2841205 -1827644 -762647 765172
0.992000 2421795 3494924 2089209 703236 368411 3058184 5359047 4618882
1.008000 1036864 -1938340 -2432464 -1063067 -63976 -1125164 -2325284 -2607927
1.024000 -2500841 -1626609 -1428662 -524632 -75113 853473 889288 -2931
1.040000 159246 846252 1401467 1081806 617212 -323876 35470 204349
1.056000 107775 -535117 -228691 -77315 29530 152322 134003 152350
1.072000 -46079 521890 223405 388880 -56966 -32645 452880 705861
1.088000 547834 348694 238251 -30783 -153860 140623 67741 -357470
1.104000 -591567 -948310 -538913 -597837 -886599 -817935 -1021973 -268871
1.120000 -12045 -240877 1494966 2076578 1934613 1296349 1160681 644890
1.136000 1310379 1446458 558783 -431833 -1267255 -1637903 -1653532 -1726286
1.152000 -857658 -1122725 -947058 -1343003 -1766406 -386626 1228941 1034421
1.168000 908257 338456 104699 1168322 1179299 1016734 256123 53147
1.184000 71077 -335195 -440444 -758352 124993 576904 -27545 -674024
1.200000 -853276 -520513 775543 642521 25072 -272946 546654 754704
1.216000 255029 -417605 -61924 479057 503091 684155 -533276 -816455
1.232000 -173511 177900 -206688 -446346 -424918 -401135 -653961 -17531
1.248000 -862286 276330 1076099 441075 616471 377730 290386 562677
1.264000 1230483 1009187 293636 -15523 -317607 -818077 -684048 -541786
1.280000 -1347602 -1463880 -1337452 -903546 -1282872 -68232 -124157 -32983
1.296000 79322 733975 508159 436774 713449 866069 969749 714364
1.312000 325628 120202 -248208 -304013 -252433 -721854 -465496 -603015
1.328000 -108814 74661 -216399 4278 -219011 -171656 -371793 -106702
1.344000 -213489 -67636 -245663 -202996 -188893 488547 -259939 -35288
1.360000 -28171 523082 273869 -10212 36683 -173354 -469029 119638
1.376000 121010 -161493 -354308 346823 395461 54712 454698 -58597
1.392000 334057 295105 -118198 174804 520872 171755 300778 -534516
1.408000 -894458 -536515 -324531 51118 -13337 -1128447 -632546 -467991
1.424000 180292 384599 109867 420422 24501 739059 768221 484120
1.440000 482413 643654 -191297 -222775 -671049 -450074 -279222 -39888
1.456000 -310507 -453795 -481794 32114 215088 -326905 -82846 -435416
1.472000 440075 18154 166867 -31565 -80542 383974 -223134 431409
1.488000 196834 75512 -95977 -274113 -95323 228085 -319652 244969
1.504000 -192857 -50307 317771 -296693 162280 -291007 -142526 -141996
1.520000 372198 47409 124141 35509 -243039 122282 -38636 -338573
1.536000 -177431 -237347 211881 123920 -158268 484948 214541 -383803
1.552000 4739 -368360 160921 88799 537086 174718 214375 114600
1.568000 -86318 530044 326959 292166 -401368 -84423 -206044 -222050
1.584000 -256004 252926 -15817 204719 -20042 -132592 -313799 164215
1.600000 -279458 -264813 245102 -390893 -340262 30909 168093 405078
1.616000 282144 -94464 -13371 24728 -127814 -175592 51186 466873
1.632000 -63536 -81848 -410974 218672 502958 -40661 85209 109205
1.648000 10600 286101 -60509 367703 94563 -248226 470485 -133207
1.664000 -433625 -500277 237382 45854 250704 126118 -288889 -325870
1.680000 -362775 -146445 -343581 56359 -161827 419158 327941 -20353
1.696000 74500 258132 -360549 -22379 14146 254247 22377 -213871
1.712000 -160861 -300698 -121355 -308349 -103714 -37748 205333 -471314
1.728000 346573 -217790 420536 23501 434610 187043 338981 602592
1.744000 85782 260022 -311830 373682 53356 24640 -292039 126203
1.760000 -91032 -1424 -67175 303696 -142023 7024 -107792 -330353
1.776000 55875 41046 -3340 -269315 36764 132493 331256 268653
1.792000 175361 169764 -83959 -8640 -239246 342182 33062 86439
1.808000 -441967 -375057 191786 411614 -285613 296568 394198 28970
1.824000 -100843 -172698 137113 37361 -203908 294035 -47222 -737194
1.840000 255910 227658 -109755 159977 -488161 36411 -338617 -41169
1.856000 -241385 103910 361172 329310 394678 389049 -390491 301291
1.872000 42846 173208 -172681 -407365 -17758 202747 354099 481969
1.888000 -251618 293576 242860 -303428 91750 275155 -334076 60966
1.904000 84540 364559 118024 -356242 370347 -227279 -24003 -121606
1.920000 161886 447568 374185 76244 289242 336339 304046 33362
1.936000 47829 -75773 184255 158519 -151161 175405 301747 81088
1.952000 -95734 -135322 187273 -202580 163009 125738 93924 -428959
1.968000 -63951 -68458 247793 184744 -276041 77241 245696 -38285
1.984000 -169784 46570 -272910 312728 111025 23985 276459 -23351
2.000000 528805 33969 341875 -274779 852871 -481593 265910 -101237
2.016000 -42569 -202230 41525 -291707 -442580 -440196 -392947 -345336
2.032000 226421 -62664 334293 -128750 478305 -323864 202935 -49235
2.048000 148218 -5381 85504 202164 -181177 130222 -412976 348671
2.064000 35936 -119397 243668 109256 18652 -27141 -101790 -172445
2.080000 -121524 -641809 -168871 -219175 -136665 34159 -438650 243817
2.096000 221760 -133505 -263036 -210736 -152764 -129747 112653 144362
2.112000 314039 201048 -10401 -37990 173718 -65815 139006 -1130
2.128000 64755 312465 -88527 -16111 322150 -21770 337088 235369
2.144000 48760 -675612 -361851 -222504 325901 -412706 -84793 23087
2.160000 -361394 46090 310674 191242 -56915 202454 23718 228647
2.176000 -216119 172189 64058 28626 300454 416418 -120760 218856
2.192000 211211 38977 239710 138882 186165 -317802 -371822 305681
2.208000 -38585 518080 -151326 520231 -175643 287514 -560586 -70651
2.224000 321597 339142 700659 -134082 -296402 49570 -143850 96053
2.240000 -194303 102776 -81705 -13273 -4500 97579 -235083 -66719
2.256000 -293725 -3191 92820 327064 -231591 93387 349112 -98852
2.272000 -172937 286849 264054 11542 -225067 -416328 196890 231346
2.288000 -290635 -146251 -214920 40041 117403 -214944 68162 147950
2.304000 326165 -27622 -143225 122868 411815 -184795 -248917 -171295
2.320000 451237 79823 24971 -447695 105041 -320414 -205 142556
2.336000 -215265 -412936 -464644 -130296 37100 -255309 361102 -179234
2.352000 82611 258407 24057 -30893 500669 39913 43534 -261450
2.368000 340670 -573997 -29519 455090 -311068 -24289 -118804 420219
2.384000 313193 -103811 -22437 -90250 -87122 -148890 23300 206787
2.400000 58849 -81693 306999 -316002 239468 173610 -235305 359393
2.416000 -146025 32659 -442909 -119586 529152 164645 -318665 75204
2.432000 245504 58778 -211791 20635 -256964 321234 -25419 -169201
2.448000 172544 242978 -147388 94865 -297379 338059 142477 -330387
2.464000 -152224 359474 -8682 -185346 -156793 77939 -18805 -189205
2.480000 69055 -46808 25847 42115 -15125 298441 388732 236102
2.496000 704763 -135856 75768 -404201 309227 -481326 -139679 236089
2.512000 204785 226825 -350480 -181283 427120 -196898 535962 298847
2.528000 -161823 133501 233595 67575 -215027 210818 310802 426649
2.544000 382750 -107209 202425 -105975 33186 -192030 -115916 -178791
2.560000 -233877 287248 -124593 290097 -25769 89250 640864 -309261
2.576000 65460 -150338 97554 -380407 -243288 432543 -52568 -274152
2.592000 159700 466766 -575544 -60818 -75792 -374505 -372000 212807
2.608000 867381 -212167 -92656 184873 -68941 -468286 210459 -45224
2.624000 121522 358111 46086 -89466 -506371 -175422 -81671 6806
2.640000 1872 123135 175490 -223111 -124330 -34626 299016 -118489
2.656000 239505 -190080 -233132 -426861 -26624 -272849 10934 319805
2.672000 -384091 75132 358100 -216997 373531 326911 -179284 343537
2.688000 276690 289511 495690 -130350 103820 -238831 712612 408847
2.704000 27475 -580142 -259049 390613 -90559 -47775 -228893 -61391
2.720000 -136357 9168 223989 372931 -343548 280329 -698643 330077
2.736000 294616 155476 354883 241999 -232909 74250 294170 -244298
2.752000 -522613 -109745 -330510 69289 40712 358527 390823 194617
2.768000 -120503 -287861 174028 78917 -282783 -50823 -212928 171977
2.784000 -177319 163138 -70658 -180123 -119966 16376 -147566 -83990
2.800000 -100094 63972 86740 -344331 -116515 -136730 147453 -116845
2.816000 -201578 130316 309855 164032 -230325 287952 607635 -19350
2.832000 130660 -122976 -324893 -110049 -125325 -260518 31306 -502745
2.848000 38376 -132455 -216439 319797 284295 -237119 123321 -183729
2.864000 -114207 -156260 16052 -4302 306114 231414 -431506 -52471
2.880000 -279661 -103859 100338 -97582 260387 113783 484395 254761
2.896000 -52258 123384 -375122 -285990 299784 19520 -116260 230728
2.912000 194710 -17682 -64827 68062 -159768 -34276 -192575 -108867
2.928000 472865 176466 -23264 57599 -138294 327377 -366618 41461
2.944000 142186 -78223 -88980 216734 98298 316172 300707 -405571
2.960000 -519549 -306643 -171426 -44560 -319218 -15101 -108667 -350203
2.976000 -147469 217710 -331996 315664 -526028 -554088 -31814 -10192
2.992000 40045 251351 180418 -295143 -93636 -287357 -63667 -297664
3.008000 203687 -153298 167250 313913 372365 -321000 148003 -9509
3.024000 -176974 -701302 -237658 -190585 415312 -451748 12776 -321686
3.040000 -51336 95054 14185 244652 -373032 523737 -5422 159374
3.056000 -100768 -93336 333756 -350238 -112582 -30581 64219 115691
3.072000 -17932 -398652 -143126 360889 62695 100481 3606 30077
3.088000 185712 -8517 799519 56527 -70199 -453841 -109251 17038
3.104000 39615 -539460 223198 308396 -62098 50498 42974 -42392
3.120000 149857 157999 -488844 170219 -164454 11930 -178355 -316688
3.136000 513816 75572 189330 -136718 286304 342355 206131 -142176
3.152000 143488 -375603 230100 -316840 148412 297355 323305 -436407
3.168000 178018 338014 -100631 305655 -138553 -293564 483792 10242
3.184000 -44346 208843 109137 329780 -250544 648848 172360 94924
3.200000 337105 -476833 -263038 190819 -131833 107748 522222 -52295
3.216000 143291 -74227 -444388 90408 84535 -467986 325365 152289
3.232000 95055 87302 -409730 181145 -88067 356172 -261508 198054
3.248000 234838 146461 463921 141607 -69715 26816 -294910 453219
3.264000 70242 -346679 57509 -193583 523922 2057 27774 204312
3.280000 -58144 68528 -249249 13074 -110544 -381096 -124301 385128
3.296000 -122 -37945 -170208 -174767 -334920 -152323 -400139 477405
3.312000 389348 285602 -264301 -91086 71138 22870 102732 -179456
3.328000 -209704 -12834 266504 184703 -49605 342726 -220899 -203755
3.344000 32699 39764 143742 551702 377902 -404379 -216315 -14005
3.360000 -142162 56215 88174 305015 -342611 -18365 -552909 -589726
3.376000 -175572 -10311 -103698 -411400 366441 -133467 -266632 -180765
3.392000 488432 251393 -450242 -5247 32704 -73200 336960 -63202
3.408000 -435195 6327 369545 103779 396522 753775 229309 -166510
3.424000 -3483 183074 144392 393234 -118358 339653 257329 136127
3.440000 -238246 331506 390264 -317684 68771 236394 -51016 427375
3.456000 193247 -74604 -356942 211324 155992 6864 -186546 -191217
3.472000 174684 274886 -157896 -414413 -209230 273906 203784 57086
3.488000 -14230 -292003 338805 316487 -293491 505050 -224725 233414
3.504000 379703 -311590 -195732 -263883 476090 305 336319 -185131
3.520000 -168492 -22561 -481706 -202107 338190 366653 284255 42868
3.536000 48023 80958 -79500 -171589 -625179 -286629 -59956 172888
3.552000 133228 338362 -22355 348843 247087 -47290 305553 167943
3.568000 -433773 181032 -50647 -252442 -251330 -352950 125436 202761
3.584000 -366971 33094 -96345 -119119 276037 408006 -33013 324219
3.600000 89001 73090 122290 -209615 -12715 -115869 40616 219339
3.616000 220880 -201621 -317134 95983 -382372 15044 84174 -246250
3.632000 173863 374011 35464 -62073 -69388 -245426 201482 4875
3.648000 -290048 279520 -111576 235544 460483 -292785 148958 -147156
3.664000 93803 270059 -81742 33460 -82667 -23750 98722 93421
3.680000 185565 154158 112346 -200119 291237 -152994 425337 16892
3.696000 57972 95529 98498 162348 73512 227603 294945 -255791
3.712000 206567 106769 19255 325223 247887 -377816 -6882 165124
3.728000 -173011 -287141 405157 -59344 324693 466318 -180677 233731
3.744000 -12241 171092 -53769 -292309 95220 -231131 376420 631288
3.760000 -162360 -113136 -82896 407132 -234981 -84910 288758 -309182
3.776000 -324531 102552 293217 107788 233097 -397087 -393132 25040
3.792000 81573 303517 -46407 140235 28683 393912 -39747 -70977
3.808000 238542 -250043 214377 236021 26573 133510 -100561 -106397
3.824000 147308 269135 157026 240788 102264 66592 114906 -204889
3.840000 -218655 375481 -42899 -85929 -90798 -55548 -249681 54104
3.856000 -383181 -61795 150091 187076 -134722 -317927 -118350 -203115
3.872000 -325384 -133449 353738 -379024 -13045 -389303 2227 -101196
3.888000 561445 4873 301912 134795 -118279 -156010 465816 -237514
3.904000 65615 35174 -827576 -126552 -86158 -160426 50701 -10471
3.920000 -444474 317774 390267 38205 9711 246164 18039 -566762
3.936000 91348 54691 -23806 53003 30420 -288607 -36432 20112
3.952000 -76048 -408526 22717 -365985 -14473 -145563 145902 355017
3.968000 122406 -107114 -30952 -736072 352542 93886 -197719 12375
3.984000 -212452 196435 18467 -170337 177223 -17155 115451 283448
4.000000 -125471 246013 -353782 -183954 -179488 -165645 220430 -168108
4.016000 17682 63865 -428323 -480240 407070 617750 -266432 195744
4.032000 135803 303726 14618 -255091 69490 5173 -279024 -389608
4.048000 -801926 171460 338556 218871 -97659 -357629 238330 158443
4.064000 -436758 314671 -308034 83932 -237926 -60053 141566 -19028
4.080000 335637 102916 -281705 -339177 255075 -166162 -133232 -399945
##PAGE= N=2
##DATA TABLE= (X++(I..I)), XYDATA
0.000000 -226470 151547812 179531781 99059194 27839514 44047600 111345821 146424324
0.016000 120458760 71303951 30299669 -10165557 -58066409 -87866367 -72417597 -31562051
0.032000 -19230581 -54210421 -90487883 -78051943 -20706038 24627267 23985358 338377
0.048000 -4350451 16363415 32110435 22882449 2929182 -3427003 6541597 12774920
0.064000 4651501 -6896849 -6749183 1389708 6187555 1768205 -4667912 -5599371
0.080000 -2079193 -1612906 -2521282 -2678412 1072504 7520674 12825500 17991648
0.096000 22828827 27276287 30009420 27998228 23446245 14441841 5309316 -5258750
0.112000 -19487835 -39384331 -60258631 -72014908 -67119750 -51885651 -39700617 -36707070
0.128000 -35323416 -23767402 4346241 40607450 73100269 91408933 90317609 68622227
0.144000 41299665 30036931 44235247 60908800 43829943 -15133283 -75410097 -91678564
0.160000 -60818769 -26863422 -25314958 -48242677 -58147638 -38630170 -12120305 1430723
0.176000 7139117 21012169 40174899 40573842 17131308 -2797362 5715936 28771659
0.192000 31463489 4468597 -22121067 -17708042 7480810 17130909 -2240300 -21414481
0.208000 -13334298 10925927 18366265 -13255 -17841383 -10108019 11067465 16795763
0.224000 1619908 -11497087 -3386412 14465597 18553100 5058626 -5846874 -370740
0.240000 7728156 1629127 -19616252 -33735395 -26899565 -12409962 -10852520 -23395658
0.256000 -33977835 -28082696 -6646349 14879745 28410688 32853569 33420941 34077559
0.272000 34819638 38666082 41026821 37350888 23477553 1884277 -16901592 -27238777
0.288000 -31988046 -35201373 -39417363 -42000409 -40093869 -32755581 -22747014 -12163634
0.304000 -3111808 6759616 16545496 25514282 29403441 27761701 22325086 17884051
0.320000 15469437 12726711 6592090 329357 -4401530 -6006212 -7273924 -10644557
0.336000 -10670764 -6383727 -212509 521988 -3751351 -6329449 -1580842 5679068
0.352000 5441835 -2763589 -6399930 -1371178 6741729 5892703 -2620872 -7578374
0.368000 -1215881 8112784 6024092 -6120162 -14056502 -9037033 69913 -1363733
0.384000 -10772882 -13617067 -5250671 2976674 1959002 -2812124 4229883 23649123
0.400000 35970244 26176721 5350356 -2471807 11102164 27659379 24521083 -26437
0.416000 -24041689 -32924024 -27860641 -20583782 -18277834 -16776646 -16883204 -19323506
0.432000 -21596700 -15368440 2698808 23718431 31950306 23259371 10133359 7493358
0.448000 15933347 23843165 20208843 7855892 -2957041 -7758419 -7562130 -8001608
0.464000 -9640601 -9593155 -8553079 -7115294 -6259411 -5348148 -2754620 112455
0.480000 2120830 2175412 1751380 1217734 991701 1257417 567073 345968
0.496000 662182 -103949 -6136 -115425 197906 -93770 -383659 -730493
0.512000 -1424218 -1466658 -2218899 -929469 -622915 265237 171917 1521129
0.528000 5013334 8235877 9879817 8391703 6571574 5206503 4076234 1850685
0.544000 -482587 -1317177 -4658013 -9976131 -18592788 -22193108 -16318905 -5613648
0.560000 130526 -3516757 -11062647 -9868853 2840302 16873222 22728762 18686889
0.576000 11809994 8380505 8461715 7511046 5683548 6554911 5171476 -3136400
0.592000 -13690787 -19392493 -13475109 -3258454 538269 -4918102 -11110152 -8522826
0.608000 -442122 6027529 4862581 1164333 1074132 4741202 6044422 2233539
0.624000 -1480117 -600689 2534548 3427818 -228946 -2821364 -2145717 1523882
0.640000 2560042 313416 -1876844 -1072950 1057547 1848023 64670 -2082059
0.656000 -298674 2362783 2713243 1974566 783383 1254585 2789124 2584035
0.672000 1697640 12319 -1873033 -3315266 -4643319 -5874940 -6552831 -5753102
0.688000 -5487703 -5244637 -4099617 -2027687 226708 3060225 4625414 6890285
0.704000 8517730 9695545 9868542 8320643 4799831 2091583 1246261 141704
0.720000 -1439167 -3963087 -8123833 -10001534 -9082614 -6524245 -4603779 -3354311
0.736000 -2153343 -1464745 -89267 1335299 2918998 4955064 6656694 5300626
0.752000 2000998 184673 999377 2568380 2050876 -826359 -2825331 -1351580
0.768000 320408 729505 -1040823 -2018701 -905408 1434226 1433566 -951046
0.784000 -2245488 -276595 1738939 1624727 -1029069 -2147749 476533 2634971
0.800000 2050156 -917069 -2210954 -349324 1908919 63202 -2638093 -5163512
0.816000 -2973300 -525335 353597 -1182000 -2750654 -1812492 937865 2475553
0.832000 3611528 4772124 5764297 4937462 2916900 853860 1248798 3409001
0.848000 3200282 -690612 -4983429 -7186194 -6313970 -4015375 -2797983 -3288105
0.864000 -4438234 -3817347 -2268486 74801 2472383 3847263 3593829 3807819
0.880000 2964718 2525570 2303061 2158578 1396666 612969 305926 -1243207
0.896000 -1423468 -1736982 -1497368 -1231227 -1351125 -590348 -574791 -475120
0.912000 -239555 77433 382328 353185 -206794 -119847 -473887 237068
0.928000 694224 433385 -527203 -121788 -260801 491608 266559 -397293
0.944000 -1047475 -688855 -154985 -560177 -954413 -628560 596406 957508
0.960000 308802 -345523 802264 2555029 3366754 2668757 611284 -1010143
0.976000 -102166 915887 452858 -889433 -1920064 -3661112 -4061015 -3758318
0.992000 -3625984 -1236293 578142 545979 -1837034 -2480114 562272 3363776
1.008000 5651904 4181069 1501167 400229 1003978 2135028 1961608 377462
1.024000 -746756 -1656753 -1384099 -2354528 -2375996 -1068710 -90201 -508125
1.040000 -784552 -1098421 -424712 546560 655409 573385 46817 112230
1.056000 376697 803069 152600 -462964 -177507 -226434 481595 381793
1.072000 -176976 -206767 38312 -138261 198685 -261158 2435 -474864
1.088000 21983 146909 322031 386509 474883 953517 910949 691832
1.104000 592799 237688 448859 -589515 -545832 -761699 -736965 -1067626
1.120000 -1829138 -1714361 -1701003 -931400 -320646 459218 -185803 682393
1.136000 1221283 1676958 2304662 2377462 2237254 1696956 268637 -109292
1.152000 -295724 -82739 140605 -644003 -1685985 -2566320 -1556886 -324353
1.168000 90099 -221690 -618673 -125404 -60982 612321 362032 546464
1.184000 806065 846644 450183 152891 -430806 62797 1054424 -39325
1.200000 -340999 -870047 -148607 547301 138676 111445 -114742 -85776
1.216000 392604 279263 -371999 -21583 -103994 906720 -466212 204545
1.232000 304907 -56252 63106 603174 -533180 -154302 -144607 -27313
1.248000 -269371 -1067810 -483598 -424827 -464869 2116 -86051 -374700
1.264000 -52944 608798 1222719 1637215 827248 913871 242036 700661
1.280000 448964 269123 -493371 -523894 -936242 -1198464 -1255993 -1546763
1.296000 -839786 -186778 -301091 22072 305293 -99255 545318 752850
1.312000 563335 557130 506750 440322 409437 114056 364336 -90336
1.328000 -141315 -45157 -2960 59086 5408 -394079 -330985 -105075
1.344000 161557 -127867 164421 -426510 61495 -43141 197891 -137937
1.360000 -429263 -176581 330428 14033 570405 -117870 61627 -297629
1.376000 79419 -356648 -248802 -418822 226175 489978 -181182 -591086
1.392000 -243371 149588 589354 409993 497876 535067 529754 591218
1.408000 117722 -301087 -187716 163071 102986 138738 -543064 -1034910
1.424000 -588497 -495623 -246670 -56264 168960 125611 -214911 150422
1.440000 34618 872024 707941 1228279 225588 356397 -25197 389773
1.456000 92956 281270 -396432 -230274 -525358 -250347 -28166 -592348
1.472000 -135731 -80565 -66731 477710 -190117 -393767 -79378 583249
1.488000 -387584 -169074 -178760 231145 -509826 -165929 -432273 -67626
1.504000 276449 180636 -29700 198001 -627240 233640 -360699 138609
1.520000 15400 259698 113928 47433 263396 408477 92570 73635
1.536000 113991 134025 194015 -9645 -762321 69164 -237502 -735481
1.552000 -93203 -493907 -244414 -794185 -985087 -189087 200203 343982
1.568000 -159573 -385810 144907 386826 153511 351443 163029 112661
1.584000 356727 238985 15804 -115067 -482238 -320014 -421358 -250098
1.600000 -197225 -316832 -185528 -200140 -26643 -113933 107918 297091
1.616000 173915 -63705 87757 28048 26990 -124847 -86848 -364271
1.632000 178107 11764 203667 -259526 54769 293778 -134845 -39351
1.648000 71914 56116 105141 -21787 175037 -523352 -149038 414102
1.664000 55824 113319 -721218 12257 237378 -345271 -286472 -42926
1.680000 307286 -367911 -371662 -156426 -217003 148166 -186541 -244379
1.696000 504012 -330532 322674 60792 341752 204141 154149 446121
1.712000 -5002 291926 512252 49436 -213442 -399708 58985 -236990
1.728000 -421269 -267224 -172761 -138873 352359 118996 124136 562328
1.744000 -201821 -21225 -220649 268155 48493 655104 281920 80003
1.760000 -276416 256094 110187 44702 -197151 -230534 342792 -121755
1.776000 410320 -213716 -114185 -63843 -294719 258609 441227 -634104
1.792000 -209257 220937 -302518 110245 328987 99895 -200103 254844
1.808000 -359717 241243 690733 -231618 -307342 -386958 -226499 -126435
1.824000 -336476 139047 -205371 -180436 -308660 -41871 180371 145590
1.840000 -35585 125727 319621 -26616 -512638 297553 -85139 -181003
1.856000 -99194 -384247 25196 -579988 95560 263675 -12095 -215502
1.872000 -49422 -157679 84032 397498 117477 434467 30517 255689
1.888000 -94765 -507737 75077 -311012 -227078 115844 -48422 -515860
1.904000 -312911 -378959 -307677 50920 -44227 -36671 -412588 570265
1.920000 352862 79845 166315 -216963 -241357 -31512 171444 -174684
1.936000 -168000 -385898 124643 103104 -53411 -416608 42467 19645
1.952000 -190933 -99639 275066 96737 563272 111971 -564969 140990
1.968000 -512174 -431291 -283455 85397 20872 -139377 -4526 -539586
1.984000 -313204 750620 -405685 18673 -52240 -8305 -439507 -379078
2.000000 -240550 136172 119124 -126593 -21751 174714 -234299 570903
2.016000 224213 224261 115770 46597 19495 205758 262000 -145720
2.032000 -197879 -314943 -90522 -312367 370584 -190857 69271 332690
2.048000 38210 127869 193201 106954 -100773 78258 91358 -59298
2.064000 -142419 -315818 -19878 -410430 178599 -54193 -199270 -219774
2.080000 82899 377556 12562 -544156 81906 255791 208554 112012
2.096000 -268862 -310800 -40663 -196951 428909 317978 122830 59595
2.112000 -33744 48287 4291 209185 331424 -113538 147774 -193917
2.128000 -316244 213562 -62026 -69295 109256 -489609 -151617 163035
2.144000 49288 585845 348785 440178 93482 -105540 158803 -72609
2.160000 68776 -577525 -131007 64905 -63471 101973 -53249 423165
2.176000 536154 -327117 -288468 -218392 -303534 -80917 -29263 28635
2.192000 -184760 15719 105073 101950 357463 -20607 -212908 -55063
2.208000 391245 -203030 -386465 523890 -344134 -141924 296059 -299015
2.224000 -137796 -439491 108375 -396616 -8075 308811 119613 89863
2.240000 -133394 -202191 120817 268279 220963 -383590 172816 25098
2.256000 307559 -310503 287194 137808 71591 39849 -93179 257608
2.272000 -161295 -95074 -317787 -17020 -233365 144876 -328380 268698
2.288000 84273 -124105 -27786 -78031 -49587 -66362 137230 114856
2.304000 40998 170494 -169382 105625 -21167 -122896 259622 219661
2.320000 303774 570406 -436000 58083 -42910 -192086 -611369 357951
2.336000 219406 -194240 9290 -87261 270695 -146312 262323 162348
2.352000 38589 116 -27124 128852 -220810 29613 6786 16761
2.368000 642513 -329054 291191 49490 42921 -207901 -65860 343274
2.384000 -272954 180666 -61894 -57226 -87180 96423 184612 333373
2.400000 84785 -216389 74325 241396 -209412 294698 -262512 -237237
2.416000 -148160 -66162 106664 -227164 -111763 -149463 -264915 -411760
2.432000 -53777 -447829 158291 -658500 224596 -229843 280665 372723
2.448000 54633 49963 237848 -694645 -106853 -147854 115540 -107336
2.464000 -17801 -564992 -256205 -240155 -221400 53461 -258240 383988
2.480000 -192424 -159012 128013 215188 -115875 -381542 15160 -11297
2.496000 -380700 -239826 -98281 251447 257122 536718 -272706 -196638
2.512000 11145 -195703 -94854 -39412 283762 -226020 57352 -48287
2.528000 -440942 -241899 101114 -342531 -318794 22722 155178 520130
2.544000 270185 459583 343022 -181944 187779 282027 -749318 -195625
2.560000 63555 331499 136941 169209 352806 198579 107748 226161
2.576000 -47786 71579 320166 237513 -10974 -143102 -257280 -97624
2.592000 -70601 217486 -213658 49740 211898 238209 165449 -241491
2.608000 256073 813919 407751 151168 -4417 188232 -523119 -74419
2.624000 16266 -301987 67946 -80452 57309 128637 -304816 -308917
2.640000 -138165 129611 -24063 -196959 -520888 121689 251657 -178213
2.656000 -144634 117614 -80404 67741 36044 309606 -324890 -42906
2.672000 -145767 -88889 -70497 101560 -118053 -225951 -88721 119137
2.688000 -178029 37469 -402659 218436 89704 11110 -291818 71074
2.704000 -718169 412866 -387738 -8112 130450 249852 -13631 -351311
2.720000 657137 108901 43418 -561849 -281241 536982 498 205141
2.736000 -39304 361308 -243499 105973 -97851 -27267 -263514 -85985
2.752000 -106501 -385111 -294161 -123530 321201 123969 128515 71370
2.768000 250083 -116125 456865 2165 -144084 -359371 -138144 -101830
2.784000 -285748 -140875 -187178 -36070 31854 402570 240026 114362
2.800000 160025 108543 61104 -257224 -325574 -219149 327594 58041
2.816000 71638 81778 224159 95710 -72415 235806 -490485 -330740
2.832000 18022 156335 -109040 -13101 -154433 -77456 478665 20453
2.848000 70902 -35134 47746 -122399 -418435 28411 255305 107254
2.864000 -398752 211513 -286833 -366544 108621 -226076 -274652 485904
2.880000 -20934 97285 388728 102972 180480 225990 -199034 -149825
2.896000 -52500 -9856 121736 188564 -244577 -88767 -58632 -200604
2.912000 64508 -479024 434924 45206 63570 -220621 -315033 -76005
2.928000 -206972 102330 -348604 -444139 104702 -389244 102384 126682
2.944000 8045 405615 -186761 196113 -160768 -272462 181236 -219986
2.960000 250159 219560 183443 -165527 -39753 49955 -39810 -49399
2.976000 -11681 257312 -341708 13689 272936 138167 321207 -76284
2.992000 151416 177644 -213619 171833 433604 119681 -70819 -377087
3.008000 431919 -322373 -101609 46572 16614 51194 -11571 137139
3.024000 432353 -442623 181511 219651 -120217 -170732 164839 338680
3.040000 -255750 479584 -143635 151607 100401 -321297 -209236 102592
3.056000 -169222 105162 274621 -70211 314297 211740 -255518 288995
3.072000 507738 271459 279527 122839 93567 554030 333615 128145
3.088000 29732 257119 -184379 390609 364250 288882 -290988 -435765
3.104000 250917 -32966 417360 -433020 95785 229693 -389010 150622
3.120000 447712 -179965 126982 406128 -446575 168802 -134585 59697
3.136000 104632 90118 153102 32303 -86446 191734 271194 -441046
3.152000 171995 -50447 56091 -66255 323094 -42041 58680 -72466
3.168000 -326514 493299 -48267 522404 145832 -139452 -48694 -270287
3.184000 332585 -190966 51998 -165466 250516 -178812 318438 42510
3.200000 222886 -212932 -134939 -101090 -335175 417358 -373256 -110319
3.216000 87197 305760 434078 -173367 254688 235119 168504 409629
3.232000 -474901 -589936 265801 177308 451388 -121297 260713 61766
3.248000 95912 -152710 -211917 59208 -97134 44646 -1859 55070
3.264000 -181001 -324063 287342 -50109 96949 417353 571919 192041
3.280000 357636 171647 194236 57003 138567 167958 101213 106556
3.296000 -163171 -130365 268248 109562 370657 -20811 -674300 -196891
3.312000 605400 -366274 423090 -217234 -48272 43683 201889 505505
3.328000 80236 85056 452040 -30149 358229 -165427 -5473 -427091
3.344000 -64343 61658 166318 453596 142681 -205159 290660 -323358
3.360000 -244037 -233763 -306622 -332489 110405 -442848 441242 63110
3.376000 -35593 -18326 -619164 -51017 2829 -265640 -165020 -249275
3.392000 82726 -10872 96088 -161933 -175032 -381950 251432 -718624
3.408000 40917 259763 311218 -63852 131634 -82446 408441 -65712
3.424000 -48276 -181376 -187494 101910 -16207 -91506 279882 -400836
3.440000 317985 -356305 -16368 -208308 155534 388127 203772 81586
3.456000 -20699 -32152 173046 -146450 288596 10450 63675 -189510
3.472000 309543 -48865 86436 -115311 61287 -424930 406146 -179919
3.488000 49870 73701 -249652 17254 -156648 -113866 -337111 89751
3.504000 321202 -461617 -182282 3259 -284889 -159060 23963 193471
3.520000 -345753 628911 62030 -86890 13862 153828 -466496 66138
3.536000 -154619 345603 361861 -462797 -88222 -523904 -202787 -111529
3.552000 -410547 137856 639888 -138873 -43375 292824 -149709 185802
3.568000 211090 -66210 197485 83648 412880 94312 -323301 79517
3.584000 -220089 548145 -98635 -280658 269821 91451 292116 36275
3.600000 27444 114847 -195949 158480 -28352 37924 -164277 260388
3.616000 -69757 -165582 -51510 42801 -68369 598868 -154733 558991
3.632000 -32538 220062 -130709 -88345 -153735 32413 -182412 332275
3.648000 -318663 36758 -1296 -115825 -235188 -197911 612139 53506
3.664000 100307 -16849 193203 -214186 -38759 242916 325771 81538
3.680000 54789 138945 -308169 178887 -212526 -229469 84247 -97841
3.696000 -191950 277686 -165825 -210118 217455 -350392 -33868 -542393
3.712000 -172344 -242164 416090 -210896 245773 -48226 45036 158626
3.728000 -115576 -195587 -42449 407475 161001 61493 87598 -70494
3.744000 74849 460578 61052 -234702 -492224 161477 -152345 -138878
3.760000 782 -383533 261219 -317631 -53315 -232763 -202771 -484799
3.776000 -262224 142380 306975 42533 6408 50365 119629 -82723
3.792000 -69989 263492 -328677 309157 -276057 192458 -337020 13269
3.808000 66875 -160982 103636 -123256 -334998 582631 256558 51685
3.824000 -330033 -433630 -57560 -170471 63854 137338 -256684 289776
3.840000 -233656 -165373 530275 203470 -22754 76847 279855 297912
3.856000 214252 -98652 340529 43525 -81188 301088 -198959 -181682
3.872000 191441 27353 153504 -27737 31588 -282720 -124133 -861296
3.888000 -372655 -122981 -285568 457608 -114822 133396 -226847 -61326
3.904000 -159515 47579 -14247 -187801 339337 247443 -48158 237747
3.920000 -35129 55116 563662 65789 136035 167404 408933 125921
3.936000 304424 76651 73310 -408438 415590 246628 -30855 231469
3.952000 -92640 -155043 219092 -311199 218310 159704 -106146 38374
3.968000 110322 416668 -625354 368173 122550 361081 -22380 87282
3.984000 -166197 30163 31287 -421724 -216346 -19211 396717 -100002
4.000000 -344945 -497672 -192110 -449866 -280230 348764 -101367 77853
4.016000 87140 -232745 245046 -12357 11304 -253906 -337276 384344
4.032000 10588 -371870 106217 129942 -28012 264650 -130203 61654
4.048000 28321 -142813 -556257 104172 -292305 -243881 76324 -33234
4.064000 -71951 -52889 -74634 616067 8532 -23936 300208 -621515
4.080000 273050 -196615 -200565 38630 224096 -55987 -144364 126076
##END NTUPLES= NMR FID
##END=
