##TITLE= Ethanol in DMSO-d6, 21.7 MHz, LW 8 Hz (Branch A, singlets only)
##JCAMP-DX= 5.01
##DATA TYPE= NMR FID
##DATA CLASS= NTUPLES
##ORIGIN= DIY-NMR Model 3 (simulated)
##OWNER= NMR3 project
##LONGDATE= 2026-09-03
##SPECTROMETER/DATA SYSTEM= DIY-NMR Model 3 / synthetic
##.OBSERVE FREQUENCY= 21.70000000
##.OBSERVE NUCLEUS= ^1H
##.ACQUISITION MODE= SIMULTANEOUS
##.AVERAGES= 2000
##.DIGITISER RES= 20
##.ZERO FILL= 0
##.SOLVENT NAME= DMSO-D6
##SAMPLE DESCRIPTION= Ethanol / DMSO-d6, synthetic, LW 8.0 Hz, O1 at 0.00 ppm
##$BF1= 21.70000000
##$SFO1= 21.70000000
##$SF= 21.70000000
##$O1= 0.0000
##$SW_h= 500.0000
##$SW= 23.041475
##$TD= 4096
##$NUC1= <1H>
##$AQ_mod= 3
##$DIGMOD= 0
##$DSPFVS= 0
##$DECIM= 1
##$GRPDLY= 0
##$NS= 2000
##$TE= 318.0
##$PULPROG= <zg>
##$BYTORDA= 0
##NTUPLES= NMR FID
##VAR_NAME= TIME, SPECTRUM/REAL, SPECTRUM/IMAG, PAGE NUMBER
##SYMBOL= X, R, I, N
##VAR_TYPE= INDEPENDENT, DEPENDENT, DEPENDENT, PAGE
##VAR_FORM= AFFN, AFFN, AFFN, AFFN
##VAR_DIM= 2048, 2048, 2048, 2
##UNITS= SECONDS, ARBITRARY UNITS, ARBITRARY UNITS, 
##FIRST= 0, 5.9990472, -0.00086704282, 1
##LAST= 4.09400000, 0.0011813478, -0.0013588371, 2
##MIN= 0, -1.7443719, -1.1273652, 1
##MAX= 4.09400000, 5.9990472, 3.6938884, 2
##FACTOR= 1, 2.234819248e-08, 2.234819248e-08, 1
##PAGE= N=1
##DATA TABLE= (X++(R..R)), XYDATA
0.000000 268435456 185154885 43923199 -27781969 -1966753 44910367 40162327 -11356387
0.016000 -58920142 -76753813 -78054271 -75960855 -62274403 -31669829 -1864143 3393015
0.032000 -11649943 -18615945 -1140666 25648253 35047469 22041365 5592932 2451162
0.048000 8828293 10757964 3873498 -3587997 -3709977 314063 1909898 -755674
0.064000 -2984956 -1963177 843861 1578858 144399 -1037038 -624605 459864
0.080000 891272 642525 793324 1379559 2047350 2169325 1854844 1394777
0.096000 789048 -74601 -1227974 -2310254 -3310953 -4009802 -4327192 -4591849
0.112000 -4660198 -4328765 -2935963 -733467 1459122 2545997 2720719 2753393
0.128000 3480143 4667160 5334486 4938622 3643623 1695365 -299824 -1597483
0.144000 -1838307 -1240440 -962259 -2015287 -3731380 -4314199 -3116092 -811361
0.160000 632992 358780 -250838 -179173 693267 1208083 1290884 1007539
0.176000 891851 869527 478791 -101884 -346705 -142364 254532 204245
0.192000 -313150 -547220 -263908 211769 267416 -73282 -197195 -62912
0.208000 196124 241469 -48618 -138628 -43113 116430 147401 -68770
0.224000 -174883 -44167 61405 45518 -93092 -143456 -231523 38985
0.240000 84279 -130570 -163528 -100251 -8690 78033 28174 24030
0.256000 64209 118874 170525 179814 142922 -5366 10501 -22030
0.272000 64408 -94483 -1706 -43923 -103542 -115171 -112079 -34699
0.288000 -91645 -51615 -58654 -49622 10550 -33389 118889 85526
0.304000 75166 40725 122353 29497 -66022 71284 -4682 -1671
0.320000 -9935 -9777 -77238 33579 -73675 -47902 -64775 47005
0.336000 -70968 27364 9192 48443 14749 -61092 73135 75393
0.352000 -87786 -60961 -3154 5836 39575 -13879 34527 -20102
0.368000 47652 12482 5876 -939 4546 -58170 19180 -11646
0.384000 46509 110680 70014 -14116 45335 -49741 -24506 20622
0.400000 -67912 -31892 29843 -28398 -24412 -42960 -32091 -41465
0.416000 -91165 -3214 88348 -21547 2945 -133212 -77462 -11450
0.432000 -19578 -3368 -79122 2060 50724 -19373 -47879 -1613
0.448000 -11063 -82060 -110360 45203 17845 22593 -21048 10380
0.464000 -5540 -7055 63500 -3617 32716 -66110 104241 -43036
0.480000 119058 1611 60174 -23384 -26770 21943 -464 -19624
0.496000 71947 -46802 -64092 -41029 114193 -62051 47116 -33572
0.512000 -56687 -55188 -42867 2839 39667 51256 -54692 89649
0.528000 -19819 -42566 49442 28592 4866 51246 85198 -29244
0.544000 -20424 66770 3885 -42182 -11484 -22555 35369 -92579
0.560000 -38926 45177 49473 -51130 93065 18731 -33550 86924
0.576000 28074 -67715 9866 -34798 7926 97574 59574 -90259
0.592000 77929 -6360 -16270 -100093 -52862 -49674 20905 21731
0.608000 71502 -72831 44666 123953 -36619 -5490 7157 82040
0.624000 -8766 23368 44537 -9295 31165 60118 74386 41675
0.640000 15544 -73596 52335 28143 -92460 19746 -18019 -2195
0.656000 -13260 -18837 24229 -88163 36330 7244 68188 27736
0.672000 -5879 71701 6239 8776 28337 150807 -74236 -54693
0.688000 -862 2644 68886 -135248 65316 36836 30327 63780
0.704000 14578 45488 16188 37732 -67620 -139703 -6315 70485
0.720000 -55974 -27552 57370 -38139 25661 59230 70578 -18082
0.736000 45756 17303 78603 35809 19802 -18971 -48469 -14513
0.752000 -19630 -18441 39747 13996 86798 6396 5579 100034
0.768000 -45563 -12326 17513 -44184 13493 104792 53933 77665
0.784000 -36208 -124064 -2148 -25012 -66145 -18045 44371 47023
0.800000 117678 -51955 16543 -22506 2155 -4398 31541 8953
0.816000 -51774 76432 -33236 -10457 -37727 -55028 -50968 -10682
0.832000 -60119 60987 77830 73345 -11070 -19510 -30408 -81490
0.848000 23232 47655 80723 -90963 -76894 -31147 -22755 84953
0.864000 13973 -57092 38361 26304 -62714 79036 -52470 40342
0.880000 44834 44853 23066 -34330 -43191 52073 47500 17152
0.896000 20788 -62611 -36193 -93249 52268 14278 61203 20682
0.912000 -17382 65042 26511 -15380 25789 11191 51507 -52284
0.928000 2813 -36892 -156896 42812 47408 602 -30818 57047
0.944000 51742 75148 43464 -50292 -7039 -37424 47831 -5681
0.960000 -62508 -24187 54030 -86181 -89474 -84154 -79708 36404
0.976000 13847 29476 77466 37106 4117 -19287 2217 79068
0.992000 -14703 -5764 -36903 -11675 33035 -1690 -93002 -461
1.008000 7036 133257 48374 1554 5006 -32542 24589 47602
1.024000 66841 19893 61245 -41783 66764 -53722 320 -83175
1.040000 -50879 -50955 111743 75391 91570 7953 -19011 -1646
1.056000 -16045 38197 5469 74384 -66936 5666 -63037 -20504
1.072000 -19524 -37916 6378 -129919 50956 1237 103567 14995
1.088000 13989 -9261 -41107 -44505 -38369 84369 116815 -54545
1.104000 -17480 -6872 21493 81661 18015 78759 92872 118370
1.120000 -11903 -60685 22313 -72324 64624 -35558 88792 58192
1.136000 60776 -87677 77389 43139 -43113 3849 20899 -51771
1.152000 -75343 24856 -150032 -151250 -27178 9642 -73831 -126572
1.168000 -48247 -33955 2879 27741 -10599 -48425 -12963 -36651
1.184000 -46916 24779 26444 -16457 -58033 102515 -36924 -49843
1.200000 20346 26621 -173844 26512 -8911 9711 25697 65880
1.216000 -27804 -7801 77905 61546 70875 11121 -85109 -1450
1.232000 -42299 21876 25921 93800 -61876 16238 21858 9792
1.248000 40447 30452 -56715 27865 45617 30461 -54737 107318
1.264000 37595 44225 30477 -71013 -48084 -16529 -61785 7501
1.280000 -26930 -30347 -20911 -13633 10021 -59375 -87711 19313
1.296000 66513 -35112 36885 1430 -50650 63732 -12522 59718
1.312000 91047 20452 18305 -39825 -37245 12756 -79897 -615
1.328000 11716 63490 28673 4954 15376 -24662 2001 18719
1.344000 -22618 61938 -20766 57334 96140 54494 -12443 2557
1.360000 104 -84930 70810 -39804 -77162 -77344 -29644 -10968
1.376000 4723 -86704 -84612 10410 -67878 -74629 30308 15305
1.392000 55947 22974 -33635 -88434 -37750 59555 81954 -2234
1.408000 -35356 53309 -29913 12543 8056 -31223 -20600 2443
1.424000 -31147 74458 -15974 -21600 25 -37762 45463 -6890
1.440000 -65849 -1833 -10892 47707 30315 -45650 -43743 30479
1.456000 -16986 -2180 -11729 11207 -2150 2080 -15653 -22552
1.472000 24694 12996 416 15235 -5512 -33071 -46306 -43980
1.488000 -53360 -44667 5067 -11113 3139 -35479 29981 -2348
1.504000 1394 -1098 -89309 77164 -982 -31399 -14374 -61886
1.520000 -66014 -36681 11939 -43876 26916 6119 -101080 -4991
1.536000 29890 101356 8989 -78069 752 -85692 102408 -64644
1.552000 39254 -51632 78574 -23911 -67949 -13854 80493 -69078
1.568000 -6220 44179 5923 -31239 -61883 65379 -35763 -88471
1.584000 -34407 -75748 35662 -2529 -19719 -13319 9885 -45758
1.600000 42841 -11040 -34693 41830 6596 77477 -18370 19231
1.616000 -1156 15003 38046 -42329 43106 -19570 -30973 -51978
1.632000 -17889 10324 -62233 6719 71474 -90725 27264 -10322
1.648000 -16412 -14391 7078 -14799 332 64110 -81060 33697
1.664000 35479 53643 -49245 -20434 -3164 19485 15988 23873
1.680000 -92594 26751 -42712 -32228 -63794 -16525 4356 -29054
1.696000 -34843 -33611 33429 -50184 63592 74338 16291 25563
1.712000 -18455 58496 56696 -3405 -38152 -17978 11609 29885
1.728000 90606 -27326 111961 -7299 45526 -49952 -13346 -33824
1.744000 20762 88749 104265 26203 -18337 78398 11083 -13235
1.760000 891 -532 -20118 56018 -15288 29059 636 -146107
1.776000 -21126 -62918 1753 -40794 -103505 -42086 -38643 18626
1.792000 7040 50532 -66372 70599 18482 -28898 -57672 35568
1.808000 79305 -51172 -34797 -35546 -12397 53529 19409 24478
1.824000 -50292 64197 37242 -83991 42597 -22706 88685 93497
1.840000 -18785 61872 18064 -14618 42382 36820 -11258 -36208
1.856000 -37233 60397 -33212 -13957 14481 -26074 -5274 56834
1.872000 -46051 -23010 -51348 -13616 -13738 -104338 48045 -48090
1.888000 3501 60325 27926 86371 10496 65145 -27458 12002
1.904000 63224 -45669 58989 8689 77051 -107016 41051 -35909
1.920000 -31406 -104278 -12228 54466 58501 -93307 -3279 94618
1.936000 8194 14250 40161 -95901 -65199 -62596 -55493 28516
1.952000 40587 -4629 74346 41490 16789 116205 17416 68607
1.968000 -35354 -86670 42583 23861 -20861 -6917 -73032 19090
1.984000 18104 -21538 58085 30086 52367 -148159 -17700 -29205
2.000000 -40903 27277 -56131 5582 11925 20706 -8973 48025
2.016000 -28019 -37316 -19466 -2449 -39669 54802 34745 -28498
2.032000 25249 43927 22218 115079 -48009 891 -3408 55286
2.048000 26925 131165 -24127 -26483 -31307 -20542 24781 952
2.064000 33795 -9849 -67265 19717 59960 -11873 -25498 -32984
2.080000 51408 -5157 7785 7294 -11157 -1406 -853 -4939
2.096000 -44370 -14931 -31856 -62784 -25102 -138402 122608 -40667
2.112000 -35688 -39831 42161 -67997 -38931 -59881 48724 18502
2.128000 -58363 -7104 -49203 36884 -31216 4492 -4356 -37404
2.144000 -1454 133649 -66155 38102 -43273 -37223 28727 135249
2.160000 5721 25022 -58145 36417 61728 -86772 -120609 -4440
2.176000 36721 79686 -58630 18058 12133 40512 25421 55065
2.192000 3652 35287 32461 88684 46852 -57539 -98917 -31242
2.208000 6730 85697 16032 81781 17894 -5562 60036 6714
2.224000 -13386 -103360 4629 70658 -23455 32271 7960 19271
2.240000 -16006 -80948 1417 72038 -23750 69854 -45261 -17941
2.256000 -1225 -75432 6600 -35581 13177 -18146 29507 -10477
2.272000 7379 -7238 -24575 25924 -12894 -15964 -9449 -27599
2.288000 -25817 -8710 17387 -113602 21879 -80385 128917 37184
2.304000 58380 -827 -25905 11148 -93092 -2937 8072 57209
2.320000 -58678 -11237 4675 -46547 -39306 52964 52782 -51165
2.336000 63160 -22403 -59815 -7871 -24349 57662 95441 8152
2.352000 -28150 29027 47751 -43804 111314 23271 9025 -101912
2.368000 -99244 -56077 52931 -100155 -4327 135929 67421 25223
2.384000 -7039 78738 28413 86650 82721 -62488 21247 86612
2.400000 16034 -23884 495 8579 20916 -48418 2011 7400
2.416000 63437 10490 -26802 16497 9552 56725 -5364 -33333
2.432000 66326 877 47160 -6994 -12073 -24486 9600 10991
2.448000 18499 22952 -92039 -107572 -2430 -88779 -28286 5575
2.464000 -5134 2922 -10355 22676 75993 -38048 -50859 -15744
2.480000 -18805 96815 51622 20096 65222 35528 -33775 -38077
2.496000 -4101 9541 -92856 -10993 -33803 56260 6862 -8655
2.512000 49402 109762 8153 12360 -76927 13093 59889 -38044
2.528000 -5676 -9607 46858 9697 -8726 27517 40411 -25314
2.544000 12979 31024 55376 52219 -10056 -90930 -50045 -5520
2.560000 14579 81636 75472 -82181 76555 -41059 -25432 19015
2.576000 -5187 -3724 -66283 -37611 72075 -2693 45801 -17123
2.592000 71932 -5154 31722 58899 -44007 -34439 -23012 74619
2.608000 29789 36030 -8269 66226 54872 -20072 68135 55520
2.624000 -24415 51357 3956 -35551 -86715 30383 -62411 -47370
2.640000 -49035 -46010 -96691 -6373 -9130 48584 6914 27623
2.656000 -46512 54436 4523 -36936 14215 -493 -52026 1947
2.672000 42819 -4742 45348 -21021 49948 -94801 31082 24650
2.688000 56531 -64843 8571 76861 19715 -32866 105382 12512
2.704000 -109975 11914 -60930 -37289 6377 -37742 399 102579
2.720000 -41097 -52354 72061 -60934 -37279 -76129 64823 64649
2.736000 -35634 -37346 117872 -22238 17137 37816 76659 -28159
2.752000 48944 2565 -14614 41506 -5307 -7156 42863 5957
2.768000 7332 42509 46101 42825 -44531 53324 -17617 -61521
2.784000 19057 61154 -75131 125527 -2951 24095 270 -11370
2.800000 36211 -14882 -57476 -5370 -48652 7919 -51398 21550
2.816000 18162 2038 101504 15680 -51112 -22544 -31473 82017
2.832000 -29260 66622 50542 -17153 1729 -32638 133963 11324
2.848000 7615 46895 -37324 26792 30510 -5335 9232 4937
2.864000 -44901 26061 81207 -28323 -2263 -9992 -43465 -43109
2.880000 -59824 -16810 14361 22884 41424 -4770 -3544 -2924
2.896000 -36271 2147 -3296 -29338 -58316 44036 -30863 94624
2.912000 145243 -108878 -62509 -7798 -10610 -66495 8331 -44110
2.928000 -16668 82236 -85246 60311 -31071 72016 27827 59092
2.944000 -9743 7866 -32342 1997 43453 105013 -643 -51907
2.960000 39881 132942 -79637 4650 -67894 33115 -2460 -20539
2.976000 4857 9021 6249 44660 76338 47685 -65667 71300
2.992000 37371 -16070 60784 -10091 -56236 -4425 -59431 -15114
3.008000 -15261 -28776 50770 -39673 -4352 45938 -17208 16646
3.024000 -6878 28039 9629 7068 -31788 -96790 22350 39956
3.040000 5919 33587 49088 28628 6696 -40090 15848 44080
3.056000 -30118 -2700 -26128 18811 -26854 -29663 -71861 -3791
3.072000 -37328 -58991 -92615 -30021 -3678 -24024 -7811 -28886
3.088000 -63324 51037 -20850 -31260 8446 46145 -3349 11934
3.104000 53027 -50243 -106182 14495 6434 28486 -85876 38527
3.120000 44073 -131931 -74980 96178 10807 86532 -2751 26353
3.136000 19642 6892 -17477 -20304 45992 71255 42195 31825
3.152000 3219 44705 2844 -15544 18742 387 41526 10476
3.168000 64799 -50023 -43873 11042 16866 -15268 -18455 -66124
3.184000 -35233 77680 -13006 -70520 -29338 59396 69256 -70721
3.200000 -42305 -21364 -1877 -49428 20301 -6652 9911 38146
3.216000 -32256 -7031 -34707 -25313 -31451 -26476 149754 -3797
3.232000 -69516 -38771 20421 -54421 -17303 28883 -17478 38435
3.248000 14496 -65421 119452 50528 -3501 -8803 -1812 107869
3.264000 130100 25023 -32847 -63404 -86759 -18827 -21289 38270
3.280000 -44581 -53755 -57323 22077 96657 53338 49195 54115
3.296000 18182 26518 -2142 -78007 14895 28239 75740 36543
3.312000 69939 48767 43382 -52534 -86889 44193 -41648 -28118
3.328000 -39147 28437 -54750 6123 -1867 54411 29584 -18950
3.344000 18877 114061 75337 -17523 -4519 20704 9562 69739
3.360000 -2687 -29269 -29025 -61538 -14883 63663 -73566 60230
3.376000 -32704 35224 98606 -1715 5758 96752 82797 -33069
3.392000 67624 -18667 51494 -50394 70837 -71605 -62896 -51205
3.408000 -19731 -50131 -47512 -41493 24400 19512 39666 14352
3.424000 -28753 67833 27381 31467 3030 26826 -96540 -45078
3.440000 1462 3449 11036 70566 58602 21191 13826 -129154
3.456000 -42940 6866 49903 10787 27570 58277 65600 11887
3.472000 -19056 -36200 -107673 21825 98371 -14809 -23441 1105
3.488000 16282 -108797 -17404 68440 59689 -24657 -22636 -19693
3.504000 5171 -46883 -38578 10068 32588 16749 3871 -54410
3.520000 -91 -55786 19364 156052 -33350 11878 -58170 3055
3.536000 28104 -28186 147538 -46425 46317 -92664 83091 -1733
3.552000 -1502 62650 -53689 57854 40819 -92247 -24707 11973
3.568000 14845 6128 9581 3149 7765 44805 39216 -25308
3.584000 -18355 -25589 -22200 -1106 -90504 45189 -14500 68097
3.600000 -92224 46235 70414 46773 -36582 -42983 51979 -11989
3.616000 50888 1686 -8600 116757 56265 8728 4125 20406
3.632000 45417 -110190 -2374 57318 -139986 35544 5312 13933
3.648000 59537 141948 48191 16212 -26071 63878 80139 -10641
3.664000 14663 -32496 66916 -117486 -13401 -12785 55291 3534
3.680000 -40974 79994 3097 -72487 5597 -28628 35174 -36939
3.696000 59893 10900 -10215 5303 3165 -43185 36006 -14316
3.712000 -2101 -56532 26756 29928 -66523 -35724 3253 -102060
3.728000 -33811 69734 103419 22956 -22392 25008 -15304 -25254
3.744000 25826 -24802 940 -59880 24861 -48238 81282 -76078
3.760000 64769 -42848 22394 12466 6767 -96068 -25577 55197
3.776000 -97160 -13636 -113619 -65323 -13862 -22006 33154 -30716
3.792000 9253 -100407 23314 -18445 -17698 -54729 -73205 -28274
3.808000 -63449 -15256 60208 -72531 -90156 74435 -71064 22213
3.824000 38944 -20897 71360 32007 41265 -45076 41603 40710
3.840000 -23833 -4577 49753 44715 -52645 49161 56071 27497
3.856000 -26110 -48869 2850 -88057 -66026 24948 10144 71183
3.872000 44662 10111 64078 -40697 -5818 -22225 83020 19036
3.888000 -33853 -24516 -98943 -65047 -30497 50242 21321 -83319
3.904000 56187 -61594 -2260 -45634 23974 38732 -9364 -11857
3.920000 40609 29191 44436 31575 -78223 -91276 -18823 75411
3.936000 69470 -10732 -100525 16556 12211 70035 87839 -110933
3.952000 15925 76746 -35266 -69366 -39363 83218 14717 96991
3.968000 -8323 -18955 -41057 -3941 9637 -56354 3442 11186
3.984000 4165 26809 5951 15545 -65151 -47754 -293 -14261
4.000000 95934 -37293 -54713 -79748 55031 -13871 -37435 -34342
4.016000 -17757 16883 -64728 52297 21119 43657 -91085 46861
4.032000 3496 -86403 -8595 103753 -105682 9804 51977 -23877
4.048000 13732 -4918 4163 33596 32909 -1826 45065 73142
4.064000 -22448 53219 40375 -100005 29029 -102350 18269 -4142
4.080000 105800 25164 49617 46635 40610 -29658 93906 52861
##PAGE= N=2
##DATA TABLE= (X++(I..I)), XYDATA
0.000000 -38797 145207923 165288017 87462212 23679122 35839990 86446636 108586061
0.016000 85815845 48624145 19572011 -6450304 -34737813 -50445475 -39783308 -16734600
0.032000 -9748622 -26091587 -42002693 -34682133 -8885988 10007952 9398325 6072
0.048000 -1689987 5556907 10706726 7177739 807493 -940444 1816837 3351033
0.064000 1110318 -1641748 -1670744 381210 1313697 380737 -847907 -1055932
0.080000 -312509 -163560 -510951 -414420 131272 1110650 1847456 2470761
0.096000 2908123 3450189 3528391 3261674 2602415 1568513 508737 -504434
0.112000 -1820257 -3466305 -5155775 -5856037 -5227977 -3786745 -2823697 -2514825
0.128000 -2346835 -1460868 347385 2268923 4040564 4816176 4503557 3390118
0.144000 1771865 1175726 1849807 2488283 1646938 -652780 -2738339 -3114276
0.160000 -1963715 -838679 -821528 -1390460 -1541917 -997237 -292410 54105
0.176000 121874 436612 845128 829624 376350 -75691 53011 450342
0.192000 590251 50659 -345692 -266868 52338 193123 48370 -196480
0.208000 -136118 239752 179948 -15133 -122376 -47034 198217 243694
0.224000 11768 -54126 41359 142139 142005 53691 -64035 -59087
0.240000 27510 57644 -136261 -168677 -93459 -58960 -88875 -107313
0.256000 -156252 -126701 -26273 15296 173778 103837 160335 39178
0.272000 142650 139428 116893 113041 73228 -39473 9094 -137932
0.288000 -13364 -129926 -92495 -109320 -134522 14776 20341 -77078
0.304000 20730 74279 2115 23927 -16729 -70577 23276 -62193
0.320000 54326 62450 52541 11739 -40907 -29675 35418 64639
0.336000 -56605 117 27898 24668 50806 -72234 18835 -11653
0.352000 -188 -64645 96814 7481 78710 -64699 -18669 -25244
0.368000 -105185 73965 3622 75610 -53593 77769 44836 -1390
0.384000 23879 91958 133402 45217 71533 -2440 9349 33588
0.400000 -107069 -28026 14120 59886 86933 -37915 -82865 15180
0.416000 14433 57332 72180 -31377 -25350 15421 -42557 36492
0.432000 69113 37505 84425 89047 56455 -57198 18123 -64276
0.448000 36441 69739 -5420 5360 1774 -15746 -82177 -94416
0.464000 -33551 115763 -45364 32653 23404 15473 -41137 -62008
0.480000 -37853 54626 30060 -72037 -47891 -22305 46507 16479
0.496000 39099 28294 39133 -39273 -79153 29280 -33820 -33118
0.512000 -19666 47828 99949 21263 961 31801 -40477 -17709
0.528000 -16686 -18028 17780 -30379 14094 66888 -152423 -2535
0.544000 19921 26418 46001 -26031 -11888 44483 26612 -38208
0.560000 -6770 26797 52989 9001 -29622 -10038 -5851 857
0.576000 -64117 -1784 -8019 -19004 30544 21642 39532 -68965
0.592000 64811 29877 11923 -25732 116396 37641 -10618 37361
0.608000 -448 -20953 -26108 1418 -28381 -9751 -82967 -30610
0.624000 -40367 19656 -35074 -24211 -58684 10024 672 -50679
0.640000 131370 66322 -123292 -12347 29367 -12488 -47999 -51316
0.656000 -40795 19035 131722 -72816 -34477 -14065 -58389 -4806
0.672000 26520 -61308 -54502 -78690 -8657 37118 -68358 1073
0.688000 19485 14539 -18735 19449 1822 -62659 -68216 -31525
0.704000 33014 47323 59447 -24853 15320 17413 71741 -2892
0.720000 -9727 -12457 71580 38699 -60547 23666 33003 -18994
0.736000 -9404 -24653 11499 -5981 65323 51844 37970 -29153
0.752000 23345 11819 79562 -22998 17512 1105 34818 -63567
0.768000 -52510 37229 -50255 -9227 18652 24092 -43907 3099
0.784000 30430 -8614 40205 -34722 -5760 50790 -57494 13000
0.800000 12639 41354 56742 15292 -110375 68996 8629 -56294
0.816000 39731 -79965 -15335 -36113 -14892 25691 37022 -61497
0.832000 11744 -10334 2188 14575 68524 -72927 23855 -18894
0.848000 -78336 118552 -29948 -34343 -45310 -50774 52850 51001
0.864000 -25887 -43125 -2486 -142247 -12524 -95278 12260 28822
0.880000 13778 -7496 -25063 12614 -21648 6959 -98692 47878
0.896000 55459 -5767 18577 40787 -15673 16975 82860 -1235
0.912000 10599 75614 -24590 27862 18135 56223 -72347 -69734
0.928000 34292 -33229 67529 30035 43004 39280 -10003 87181
0.944000 -51298 -16756 -100361 -75953 14036 -50990 33640 -13915
0.960000 40795 50522 -59560 10605 57738 -7734 40817 38425
0.976000 -26867 65488 73382 58627 -29286 18790 13995 1731
0.992000 -629 -12324 5262 25653 44889 -26163 14601 34071
1.008000 16709 1904 33707 -10651 12329 48468 -103339 11398
1.024000 40328 -4356 95260 -37649 -4231 79972 -68532 21673
1.040000 27441 -73240 -1347 -29773 30602 66663 51930 -38478
1.056000 71785 52568 -122685 -52216 22756 -57872 -34251 77566
1.072000 32466 -14316 -52728 64403 -83771 32072 -36090 13306
1.088000 -12161 -57723 5995 51687 3361 14074 -42658 17612
1.104000 -15473 -32935 -5549 81232 65390 -35116 -133743 22117
1.120000 601 25782 -49439 33089 -9505 -10578 33201 10015
1.136000 88275 -42217 13781 1483 -108687 -4074 50319 17213
1.152000 -28025 -28770 -23707 -26691 45047 -8381 16855 -187
1.168000 28123 -35969 -51002 -70042 -55264 94118 90859 46507
1.184000 -11928 57520 11431 33297 -72749 -11674 -25450 -24798
1.200000 -31994 16102 35309 19209 14833 13140 -57395 22793
1.216000 79784 762 -11862 77914 20287 63123 24747 20932
1.232000 208 -12243 -40983 26861 5219 -112947 38595 86870
1.248000 -38873 4840 78636 -28027 -22885 51272 22317 -23566
1.264000 72747 4169 10872 41230 -15938 -22852 -5089 58457
1.280000 -25179 -32652 54540 41956 -83260 -15966 26892 -79129
1.296000 61112 -16227 -3832 -121100 58075 -68722 1095 49563
1.312000 35997 31949 61995 38975 -45003 25530 64285 43994
1.328000 143722 11221 -21190 28205 38289 47666 79212 45304
1.344000 -6957 -74093 39526 -55239 25806 2234 -16148 -19983
1.360000 -39772 15515 -9079 -3266 9557 52046 48431 65022
1.376000 -29737 33736 32039 56700 27937 -72500 -76654 22188
1.392000 74783 27544 -93733 12097 -14208 -2165 -34344 -11061
1.408000 29730 19151 39457 -34075 -21949 6462 109734 14724
1.424000 10168 2206 91464 15383 -19162 -42075 -50290 89464
1.440000 -49251 59083 16579 -81463 23623 16147 -5864 -4457
1.456000 49320 52961 -39268 -48841 38046 31009 -134204 10512
1.472000 9267 66404 111436 33433 101141 -65550 17874 89976
1.488000 819 92600 36968 8696 -15596 -92951 -49922 -42013
1.504000 43780 18039 44545 -58867 -44079 -30498 -28058 50802
1.520000 47871 -38117 43888 -41471 26458 -24500 66403 112614
1.536000 12671 73967 -11824 76129 -25463 -26742 1733 -3509
1.552000 41575 11368 -34086 -53603 6330 16184 -40386 -30322
1.568000 15985 -19652 -47419 -25079 15153 52625 -42700 71780
1.584000 -86922 -32317 -7468 -38536 -29790 84144 -12527 -10964
1.600000 11660 19133 -50649 1510 -28249 -7236 57189 45846
1.616000 41459 -36005 -108256 -25697 9167 -14200 76014 55859
1.632000 7948 -41581 1489 33663 33285 29970 -80664 46368
1.648000 -4588 48158 47382 3727 -4926 -51668 -10807 -90136
1.664000 -22519 -69286 62937 -50791 -42761 16176 40222 -53040
1.680000 -25046 104050 -30340 -57718 94344 60939 -6932 -21172
1.696000 -1673 43484 -19263 -76845 32599 54121 -25046 13452
1.712000 28221 -41328 77012 10027 22693 7519 55376 79363
1.728000 37040 11636 28199 3666 -2427 -13228 39823 84408
1.744000 34255 -7051 -33825 -7802 10045 4492 -20089 73589
1.760000 48349 -13004 -42630 32047 36557 32505 27839 14184
1.776000 22864 63090 -10033 78238 30994 60421 17507 -8460
1.792000 -21258 -79289 43310 -34826 31635 -6320 -66887 72703
1.808000 -10165 -77716 37386 56936 -37976 -46294 -10460 42463
1.824000 -26702 -79753 -75131 -48130 -62259 -5670 -22542 -31251
1.840000 -36543 -44838 -21436 22628 -40856 -3480 -33932 -20673
1.856000 -26809 -43846 53367 31322 -34683 -49995 -98433 38515
1.872000 62189 44893 19565 27715 11405 -11349 42494 15292
1.888000 9092 -32535 107993 5828 -29814 25513 -30046 -29823
1.904000 14602 85240 -45398 47959 59251 60043 -36541 -10216
1.920000 -25572 -73934 32585 73930 15703 -76406 -67327 -13679
1.936000 50940 -33098 -18859 -92475 -5214 52758 19607 -61379
1.952000 107136 29015 25730 25828 5086 -23791 -34407 -4552
1.968000 73041 91858 -99059 -55144 32735 -38719 23726 -40945
1.984000 44452 -51325 -89379 21620 55076 18483 -101068 11515
2.000000 -31404 19706 -42381 -22127 -25181 -79672 -15827 -23800
2.016000 -45374 15035 704 -45337 13250 -16881 -1567 -853
2.032000 -17443 36046 10376 -23731 102530 58336 -8076 27118
2.048000 41021 33799 12329 -25164 81159 -61934 6100 -3105
2.064000 -17477 103861 -77552 49382 66220 -61714 41735 -76146
2.080000 -4881 -8244 -10540 81915 27566 39029 -5273 3481
2.096000 9048 69971 7579 35611 82702 380 56015 -37912
2.112000 -8655 27794 30238 20103 -20199 -82929 40107 85794
2.128000 -3755 74324 6666 -6071 -6458 -41112 18260 17101
2.144000 88671 -16809 14270 -29399 13076 15951 2114 -5104
2.160000 -26180 28351 96400 5986 -126286 -16025 -40985 -16158
2.176000 -56005 -20876 -82093 12139 -19824 38644 23871 -43931
2.192000 -89735 35870 22277 -21049 -11753 40286 -28089 69222
2.208000 68694 -23194 -94474 -10546 -51397 -69497 -81531 -45820
2.224000 -37843 866 -10248 -82463 -36097 -41107 87499 -34927
2.240000 -24539 1994 35875 38614 -23361 12357 -20589 -20245
2.256000 72660 54871 -35924 -35373 -41578 53737 -45947 -60728
2.272000 -64291 -31403 44431 51214 42119 50247 -2550 -31488
2.288000 -62681 -30152 -26977 140458 28854 -99640 27724 14524
2.304000 29413 -14850 14357 -15484 65679 -2923 62601 -30698
2.320000 57746 -28697 34922 6966 3291 -48396 -38013 -21661
2.336000 -45775 55674 -74305 -67296 -11399 32469 -72055 -18180
2.352000 -58156 9032 -9783 -5656 -1332 20514 -24088 76578
2.368000 68237 -30799 -6268 -19295 58220 -23435 24426 20730
2.384000 -34565 -5582 -61013 29299 -13947 -24006 41066 -20148
2.400000 57432 -8106 103614 27552 6524 -3979 -53936 -48630
2.416000 59358 -15244 59716 5664 115632 76226 -10459 -7483
2.432000 -18712 2104 47638 -31793 83757 128681 -5716 -25093
2.448000 23644 41567 -53464 12499 -3152 -56082 37751 -6031
2.464000 20644 -58538 -96026 -157610 -66333 -32417 6581 -98223
2.480000 304 46521 15671 16266 -15994 -107569 -105118 16208
2.496000 -79958 -56031 52169 76736 68206 -22607 22550 14637
2.512000 -35775 -35658 -46596 4916 -16468 60530 81454 28669
2.528000 86231 -47836 28747 10637 50752 -3849 43415 5071
2.544000 39641 -61204 20488 18511 -46372 -57512 -56063 1338
2.560000 2145 -1643 -24705 12230 5013 36633 -49914 -105814
2.576000 -9078 21372 -25586 -48816 5987 114343 60108 25817
2.592000 69 -60966 89908 -15265 -25674 60472 33497 -14776
2.608000 -35936 -112201 -86606 -29764 23330 29379 -67905 8175
2.624000 16423 15665 23613 82011 77112 7195 -143522 -47199
2.640000 -81702 14743 -33874 85710 -22573 18685 -92430 -85294
2.656000 -90336 -61248 79158 74013 50121 -5534 24903 -10815
2.672000 77024 -39236 -7029 -12758 -61958 33323 -13805 -15850
2.688000 17885 60808 -9246 -27070 -33866 97216 10411 35848
2.704000 40439 -64692 -92467 -98650 48470 -136379 -39433 73039
2.720000 -25260 37753 4815 15805 53778 -50599 54370 -49927
2.736000 -46180 24110 -38997 20657 29441 130717 45843 -17071
2.752000 12758 -11284 87815 20832 5183 -60620 -4057 -51193
2.768000 23603 40744 -12611 -14056 49222 -94579 33577 9107
2.784000 4709 25657 -34394 94114 -14435 -83948 29694 -42030
2.800000 -84730 38805 6342 82010 -31226 7344 53665 -16348
2.816000 7954 -106692 60020 13856 104448 141921 75045 100986
2.832000 30789 -11379 96716 -17242 -19938 -30954 98890 -18741
2.848000 47424 -17410 50810 46903 -39464 -8329 -43222 33342
2.864000 -24573 16726 49038 -38174 -61739 61203 -5724 -21463
2.880000 -75512 11470 -16767 49097 -75813 -40345 -76342 9487
2.896000 68422 -2559 -20955 26926 26351 -80875 76115 37809
2.912000 -26316 -37556 -3790 76391 3883 27027 104895 61476
2.928000 -43703 3912 69624 92392 -1913 -74443 -51861 18364
2.944000 107744 71261 18310 90366 -71832 93328 -31200 -49339
2.960000 -8514 20476 37771 -83755 11607 109143 32956 -26834
2.976000 48303 32370 -39782 158886 -25984 -10840 -39506 68486
2.992000 -45995 -5480 -8203 35842 15942 -3794 -7895 -70281
3.008000 15594 81636 26746 -14898 9881 -43660 82331 1032
3.024000 -64660 -25351 1896 -66092 39620 -71897 25543 -45296
3.040000 -24864 -51469 -8455 14551 -9462 73357 107853 -99830
3.056000 -48007 -34732 68055 -49181 -123584 37293 28163 -33031
3.072000 37987 -44725 51800 -40130 -21139 38172 19122 10225
3.088000 60935 20738 14865 -28040 24270 -35989 -8309 -114046
3.104000 3565 -3860 17258 -7884 -7927 65199 17075 25142
3.120000 -61544 -75403 -77571 8223 14962 -46553 58151 3219
3.136000 26201 -62555 -43725 -33021 81235 -1998 -39635 -4034
3.152000 7150 47300 -7025 -53464 59884 -95417 3729 31100
3.168000 -39708 37339 10937 13476 62915 -66530 -53564 53601
3.184000 40111 28543 -42432 39272 -37001 26289 69895 6079
3.200000 -32165 46856 93427 -27958 11271 12038 42519 58329
3.216000 -82458 42877 -96481 -6311 7396 6465 -58810 -70257
3.232000 -101287 -25426 14879 -52091 33143 -3853 -63496 -24884
3.248000 24967 51519 -3411 -46803 -93238 4651 -55633 15074
3.264000 -37921 -6204 -69522 14191 -13086 24086 -53364 -10728
3.280000 -29197 6852 54854 9280 73917 -5461 30076 -44897
3.296000 85558 -42633 -14036 19698 -9151 64382 -25650 5174
3.312000 58913 74579 93391 6828 38514 48156 20705 55762
3.328000 20295 -76523 -31818 51264 126859 -41198 71572 -40448
3.344000 -33764 20972 -16122 -11541 82608 -79044 -35041 -88260
3.360000 -16083 -15824 56666 -68825 27087 44509 43676 -33549
3.376000 47511 60673 46274 -59807 12375 28012 -56431 -9906
3.392000 -24819 -61587 -124477 82953 75343 11900 17505 17448
3.408000 -28958 2817 70185 76446 -46063 -71925 -4792 -66933
3.424000 20294 -34831 -57420 -98220 -937 63981 -105031 13322
3.440000 43971 53958 -32138 12934 39154 41521 10873 -11102
3.456000 -51074 1847 20751 37474 20551 34640 13399 1692
3.472000 67525 -10797 68693 85748 -21345 -1095 -3646 3709
3.488000 -28608 28933 15142 25553 73594 -104574 51510 6761
3.504000 28366 -40459 -51916 31307 25413 47134 55521 100861
3.520000 -92857 57172 83556 -86760 1844 9408 89669 -35223
3.536000 -72700 9501 -7884 -20084 37148 -30525 16926 85910
3.552000 82718 12992 -32407 -2212 75653 -8522 85643 -44254
3.568000 51529 39654 5791 -20246 -59046 -3336 21192 -91107
3.584000 56097 9432 39790 -79109 -42240 -20566 17350 -39176
3.600000 -20529 -147143 -30497 2338 -50506 87273 41177 11673
3.616000 4160 57938 88611 126794 -13258 -7205 -53164 -57269
3.632000 31130 44606 -70797 17752 35353 -29216 -13319 62497
3.648000 -77833 96515 3965 79529 -38713 66456 19165 14337
3.664000 -10196 -54995 30077 -13738 -38226 -75531 17951 -19827
3.680000 60096 5881 60870 -40441 17459 23573 -10844 -32945
3.696000 21522 56803 -97473 72341 -76048 67051 -48541 15528
3.712000 55171 11047 51764 -149720 92296 79418 16657 106443
3.728000 37231 -65608 -484 -1139 -80542 6536 102704 28989
3.744000 10619 67961 127642 21279 -57996 5706 17744 86912
3.760000 -57915 39379 -48648 -42052 -36764 69704 50785 -33917
3.776000 25683 10325 -31869 33475 -23603 -11584 -34216 -14023
3.792000 -18982 -10862 -60414 -58690 -33336 -53422 -12575 -4525
3.808000 26432 -22948 -11202 39715 -40063 -90343 11068 45971
3.824000 10974 3174 -2978 58010 -23290 15186 37760 -13545
3.840000 -76042 -55191 -33962 65445 -61023 15593 -2879 -53533
3.856000 110011 8681 24102 -30785 8533 111548 -66382 -18123
3.872000 -31758 77523 -4901 103617 60452 46406 -68740 -105492
3.888000 -59166 -6099 3517 53321 -18187 249 14420 22012
3.904000 26650 -36437 15917 39444 -12849 55993 6363 -70216
3.920000 -18152 -19215 -8876 -49505 42875 42957 -91620 28482
3.936000 59756 -62087 -22141 -25820 59532 49299 72697 78190
3.952000 -31132 -23053 46267 8646 45218 -38048 -57563 34866
3.968000 -112005 16234 -40239 55298 -65531 -63174 123092 -11347
3.984000 -81219 35391 -26829 74356 9766 32128 -3020 27852
4.000000 72235 -63314 -65560 64106 -55900 42472 23435 -98833
4.016000 -112365 -36198 5789 80713 -40021 19078 1751 -21527
4.032000 131388 -173252 30273 -83716 97748 56328 -28181 -23806
4.048000 -10465 13736 59199 3645 78848 -50017 4904 -7613
4.064000 -17231 4184 3850 53679 -64524 54928 -34240 25310
4.080000 -55796 -14897 11880 28919 -64430 -16169 -1871 -60803
##END NTUPLES= NMR FID
##END=
